
Version,
  25.2;                                   !- Version Identifier

Timestep,
  6;                                      !- Number of Timesteps per Hour

LifeCycleCost:Parameters,
  Life Cycle Cost Parameters,             !- Name
  EndOfYear,                              !- Discounting Convention
  ConstantDollar,                         !- Inflation Approach
  0.03,                                   !- Real Discount Rate
  ,                                       !- Nominal Discount Rate
  ,                                       !- Inflation
  ,                                       !- Base Date Month
  2011,                                   !- Base Date Year
  ,                                       !- Service Date Month
  2011,                                   !- Service Date Year
  25,                                     !- Length of Study Period in Years
  ,                                       !- Tax rate
  None;                                   !- Depreciation Method

LifeCycleCost:UsePriceEscalation,
  U.S. Avg  Commercial-Electricity,       !- Name
  Electricity,                            !- Resource
  2011,                                   !- Escalation Start Year
  January,                                !- Escalation Start Month
  0.9838,                                 !- Year Escalation 1
  0.9730,                                 !- Year Escalation 2
  0.9632,                                 !- Year Escalation 3
  0.9611,                                 !- Year Escalation 4
  0.9571,                                 !- Year Escalation 5
  0.9553,                                 !- Year Escalation 6
  0.9539,                                 !- Year Escalation 7
  0.9521,                                 !- Year Escalation 8
  0.9546,                                 !- Year Escalation 9
  0.9550,                                 !- Year Escalation 10
  0.9553,                                 !- Year Escalation 11
  0.9564,                                 !- Year Escalation 12
  0.9575,                                 !- Year Escalation 13
  0.9596,                                 !- Year Escalation 14
  0.9618,                                 !- Year Escalation 15
  0.9614,                                 !- Year Escalation 16
  0.9618,                                 !- Year Escalation 17
  0.9618,                                 !- Year Escalation 18
  0.9593,                                 !- Year Escalation 19
  0.9589,                                 !- Year Escalation 20
  0.9607,                                 !- Year Escalation 21
  0.9625,                                 !- Year Escalation 22
  0.9650,                                 !- Year Escalation 23
  0.9708,                                 !- Year Escalation 24
  0.9751,                                 !- Year Escalation 25
  0.9762,                                 !- Year Escalation 26
  0.9766,                                 !- Year Escalation 27
  0.9766,                                 !- Year Escalation 28
  0.9769,                                 !- Year Escalation 29
  0.9773;                                 !- Year Escalation 30

LifeCycleCost:UsePriceEscalation,
  U.S. Avg  Commercial-Distillate Oil,    !- Name
  FuelOilNo1,                             !- Resource
  2011,                                   !- Escalation Start Year
  January,                                !- Escalation Start Month
  0.9714,                                 !- Year Escalation 1
  0.9730,                                 !- Year Escalation 2
  0.9942,                                 !- Year Escalation 3
  1.0164,                                 !- Year Escalation 4
  1.0541,                                 !- Year Escalation 5
  1.0928,                                 !- Year Escalation 6
  1.1267,                                 !- Year Escalation 7
  1.1580,                                 !- Year Escalation 8
  1.1792,                                 !- Year Escalation 9
  1.1967,                                 !- Year Escalation 10
  1.2200,                                 !- Year Escalation 11
  1.2333,                                 !- Year Escalation 12
  1.2566,                                 !- Year Escalation 13
  1.2709,                                 !- Year Escalation 14
  1.2826,                                 !- Year Escalation 15
  1.2985,                                 !- Year Escalation 16
  1.3102,                                 !- Year Escalation 17
  1.3250,                                 !- Year Escalation 18
  1.3261,                                 !- Year Escalation 19
  1.3282,                                 !- Year Escalation 20
  1.3324,                                 !- Year Escalation 21
  1.3356,                                 !- Year Escalation 22
  1.3431,                                 !- Year Escalation 23
  1.3510,                                 !- Year Escalation 24
  1.3568,                                 !- Year Escalation 25
  1.3606,                                 !- Year Escalation 26
  1.3637,                                 !- Year Escalation 27
  1.3674,                                 !- Year Escalation 28
  1.3706,                                 !- Year Escalation 29
  1.3743;                                 !- Year Escalation 30

LifeCycleCost:UsePriceEscalation,
  U.S. Avg  Commercial-Residual Oil,      !- Name
  FuelOilNo2,                             !- Resource
  2011,                                   !- Escalation Start Year
  January,                                !- Escalation Start Month
  0.8469,                                 !- Year Escalation 1
  0.8257,                                 !- Year Escalation 2
  0.8681,                                 !- Year Escalation 3
  0.8988,                                 !- Year Escalation 4
  0.9289,                                 !- Year Escalation 5
  0.9604,                                 !- Year Escalation 6
  0.9897,                                 !- Year Escalation 7
  1.0075,                                 !- Year Escalation 8
  1.0314,                                 !- Year Escalation 9
  1.0554,                                 !- Year Escalation 10
  1.0861,                                 !- Year Escalation 11
  1.1278,                                 !- Year Escalation 12
  1.1497,                                 !- Year Escalation 13
  1.1620,                                 !- Year Escalation 14
  1.1743,                                 !- Year Escalation 15
  1.1852,                                 !- Year Escalation 16
  1.1948,                                 !- Year Escalation 17
  1.2037,                                 !- Year Escalation 18
  1.2071,                                 !- Year Escalation 19
  1.2119,                                 !- Year Escalation 20
  1.2139,                                 !- Year Escalation 21
  1.2194,                                 !- Year Escalation 22
  1.2276,                                 !- Year Escalation 23
  1.2365,                                 !- Year Escalation 24
  1.2420,                                 !- Year Escalation 25
  1.2461,                                 !- Year Escalation 26
  1.2509,                                 !- Year Escalation 27
  1.2550,                                 !- Year Escalation 28
  1.2591,                                 !- Year Escalation 29
  1.2638;                                 !- Year Escalation 30

LifeCycleCost:UsePriceEscalation,
  U.S. Avg  Commercial-Natural gas,       !- Name
  NaturalGas,                             !- Resource
  2011,                                   !- Escalation Start Year
  January,                                !- Escalation Start Month
  0.9823,                                 !- Year Escalation 1
  0.9557,                                 !- Year Escalation 2
  0.9279,                                 !- Year Escalation 3
  0.9257,                                 !- Year Escalation 4
  0.9346,                                 !- Year Escalation 5
  0.9412,                                 !- Year Escalation 6
  0.9512,                                 !- Year Escalation 7
  0.9645,                                 !- Year Escalation 8
  0.9856,                                 !- Year Escalation 9
  1.0067,                                 !- Year Escalation 10
  1.0222,                                 !- Year Escalation 11
  1.0410,                                 !- Year Escalation 12
  1.0610,                                 !- Year Escalation 13
  1.0787,                                 !- Year Escalation 14
  1.0942,                                 !- Year Escalation 15
  1.1098,                                 !- Year Escalation 16
  1.1220,                                 !- Year Escalation 17
  1.1308,                                 !- Year Escalation 18
  1.1386,                                 !- Year Escalation 19
  1.1486,                                 !- Year Escalation 20
  1.1619,                                 !- Year Escalation 21
  1.1763,                                 !- Year Escalation 22
  1.1918,                                 !- Year Escalation 23
  1.2118,                                 !- Year Escalation 24
  1.2284,                                 !- Year Escalation 25
  1.2439,                                 !- Year Escalation 26
  1.2605,                                 !- Year Escalation 27
  1.2772,                                 !- Year Escalation 28
  1.2938,                                 !- Year Escalation 29
  1.3115;                                 !- Year Escalation 30

LifeCycleCost:UsePriceEscalation,
  U.S. Avg  Commercial-Coal,              !- Name
  Coal,                                   !- Resource
  2011,                                   !- Escalation Start Year
  January,                                !- Escalation Start Month
  0.9970,                                 !- Year Escalation 1
  1.0089,                                 !- Year Escalation 2
  1.0089,                                 !- Year Escalation 3
  0.9941,                                 !- Year Escalation 4
  0.9941,                                 !- Year Escalation 5
  1.0000,                                 !- Year Escalation 6
  1.0030,                                 !- Year Escalation 7
  1.0059,                                 !- Year Escalation 8
  1.0089,                                 !- Year Escalation 9
  1.0119,                                 !- Year Escalation 10
  1.0148,                                 !- Year Escalation 11
  1.0178,                                 !- Year Escalation 12
  1.0208,                                 !- Year Escalation 13
  1.0267,                                 !- Year Escalation 14
  1.0297,                                 !- Year Escalation 15
  1.0356,                                 !- Year Escalation 16
  1.0415,                                 !- Year Escalation 17
  1.0534,                                 !- Year Escalation 18
  1.0564,                                 !- Year Escalation 19
  1.0593,                                 !- Year Escalation 20
  1.0653,                                 !- Year Escalation 21
  1.0712,                                 !- Year Escalation 22
  1.0742,                                 !- Year Escalation 23
  1.0801,                                 !- Year Escalation 24
  1.0831,                                 !- Year Escalation 25
  1.0831,                                 !- Year Escalation 26
  1.0861,                                 !- Year Escalation 27
  1.0890,                                 !- Year Escalation 28
  1.0920,                                 !- Year Escalation 29
  1.0950;                                 !- Year Escalation 30

Building,
  SuperMarket,                            !- Name
  ,                                       !- North Axis {deg}
  ,                                       !- Terrain
  ,                                       !- Loads Convergence Tolerance Value {W}
  ,                                       !- Temperature Convergence Tolerance Value {deltaC}
  ,                                       !- Solar Distribution
  ,                                       !- Maximum Number of Warmup Days
  ;                                       !- Minimum Number of Warmup Days

Zone,
  Story 1 Core Thermal Zone,              !- Name
  -0,                                     !- Direction of Relative North {deg}
  5,                                      !- X Origin {m}
  5,                                      !- Y Origin {m}
  0,                                      !- Z Origin {m}
  ,                                       !- Type
  1,                                      !- Multiplier
  ,                                       !- Ceiling Height {m}
  ,                                       !- Volume {m3}
  ,                                       !- Floor Area {m2}
  ,                                       !- Zone Inside Convection Algorithm
  ,                                       !- Zone Outside Convection Algorithm
  Yes;                                    !- Part of Total Floor Area

Space,
  Story 1 Core Space,                     !- Name
  Story 1 Core Thermal Zone,              !- Zone Name
  ,                                       !- Ceiling Height {m}
  ,                                       !- Volume {m3}
  ,                                       !- Floor Area {m2}
  Baseline Model Space Type;              !- Space Type

SpaceList,
  Baseline Model Space Type,              !- Name
  Story 1 North Perimeter Space,          !- Space Name 1
  Story 1 West Perimeter Space,           !- Space Name 2
  Story 1 East Perimeter Space,           !- Space Name 3
  Story 1 South Perimeter Space,          !- Space Name 4
  Story 1 Core Space;                     !- Space Name 5

BuildingSurface:Detailed,
  Story 1 Core Space Exterior Ground Floor, !- Name
  Floor,                                  !- Surface Type
  Foundation F 0.9W/m*K Perim 0.0m Area 3600.0m2, !- Construction Name
  Story 1 Core Thermal Zone,              !- Zone Name
  Story 1 Core Space,                     !- Space Name
  GroundFCfactorMethod,                   !- Outside Boundary Condition
  ,                                       !- Outside Boundary Condition Object
  NoSun,                                  !- Sun Exposure
  NoWind,                                 !- Wind Exposure
  ,                                       !- View Factor to Ground
  ,                                       !- Number of Vertices
  0, 0, 0,                                !- X,Y,Z Vertex 1 {m}
  0, 40, 0,                               !- X,Y,Z Vertex 2 {m}
  90, 40, 0,                              !- X,Y,Z Vertex 3 {m}
  90, 0, 0;                               !- X,Y,Z Vertex 4 {m}

BuildingSurface:Detailed,
  Story 1 Core Space Exterior Roof,       !- Name
  Roof,                                   !- Surface Type
  Typical IEAD Roof R-31.25,              !- Construction Name
  Story 1 Core Thermal Zone,              !- Zone Name
  Story 1 Core Space,                     !- Space Name
  Outdoors,                               !- Outside Boundary Condition
  ,                                       !- Outside Boundary Condition Object
  SunExposed,                             !- Sun Exposure
  WindExposed,                            !- Wind Exposure
  ,                                       !- View Factor to Ground
  ,                                       !- Number of Vertices
  90, 0, 5,                               !- X,Y,Z Vertex 1 {m}
  90, 40, 5,                              !- X,Y,Z Vertex 2 {m}
  0, 40, 5,                               !- X,Y,Z Vertex 3 {m}
  0, 0, 5;                                !- X,Y,Z Vertex 4 {m}

BuildingSurface:Detailed,
  Story 1 Core Space to Story 1 East Perimeter Space Interior Wall, !- Name
  Wall,                                   !- Surface Type
  Typical Interior Wall,                  !- Construction Name
  Story 1 Core Thermal Zone,              !- Zone Name
  Story 1 Core Space,                     !- Space Name
  Surface,                                !- Outside Boundary Condition
  Story 1 East Perimeter Space to Story 1 Core Space Interior Wall, !- Outside Boundary Condition Object
  NoSun,                                  !- Sun Exposure
  NoWind,                                 !- Wind Exposure
  ,                                       !- View Factor to Ground
  ,                                       !- Number of Vertices
  90, 40, 5,                              !- X,Y,Z Vertex 1 {m}
  90, 0, 5,                               !- X,Y,Z Vertex 2 {m}
  90, 0, 0,                               !- X,Y,Z Vertex 3 {m}
  90, 40, 0;                              !- X,Y,Z Vertex 4 {m}

BuildingSurface:Detailed,
  Story 1 Core Space to Story 1 North Perimeter Space Interior Wall, !- Name
  Wall,                                   !- Surface Type
  Typical Interior Wall,                  !- Construction Name
  Story 1 Core Thermal Zone,              !- Zone Name
  Story 1 Core Space,                     !- Space Name
  Surface,                                !- Outside Boundary Condition
  Story 1 North Perimeter Space to Story 1 Core Space Interior Wall, !- Outside Boundary Condition Object
  NoSun,                                  !- Sun Exposure
  NoWind,                                 !- Wind Exposure
  ,                                       !- View Factor to Ground
  ,                                       !- Number of Vertices
  0, 40, 5,                               !- X,Y,Z Vertex 1 {m}
  90, 40, 5,                              !- X,Y,Z Vertex 2 {m}
  90, 40, 0,                              !- X,Y,Z Vertex 3 {m}
  0, 40, 0;                               !- X,Y,Z Vertex 4 {m}

BuildingSurface:Detailed,
  Story 1 Core Space to Story 1 South Perimeter Space Interior Wall, !- Name
  Wall,                                   !- Surface Type
  Typical Interior Wall,                  !- Construction Name
  Story 1 Core Thermal Zone,              !- Zone Name
  Story 1 Core Space,                     !- Space Name
  Surface,                                !- Outside Boundary Condition
  Story 1 South Perimeter Space to Story 1 Core Space Interior Wall, !- Outside Boundary Condition Object
  NoSun,                                  !- Sun Exposure
  NoWind,                                 !- Wind Exposure
  ,                                       !- View Factor to Ground
  ,                                       !- Number of Vertices
  90, 0, 5,                               !- X,Y,Z Vertex 1 {m}
  0, 0, 5,                                !- X,Y,Z Vertex 2 {m}
  0, 0, 0,                                !- X,Y,Z Vertex 3 {m}
  90, 0, 0;                               !- X,Y,Z Vertex 4 {m}

BuildingSurface:Detailed,
  Story 1 Core Space to Story 1 West Perimeter Space Interior Wall, !- Name
  Wall,                                   !- Surface Type
  Typical Interior Wall,                  !- Construction Name
  Story 1 Core Thermal Zone,              !- Zone Name
  Story 1 Core Space,                     !- Space Name
  Surface,                                !- Outside Boundary Condition
  Story 1 West Perimeter Space to Story 1 Core Space Interior Wall, !- Outside Boundary Condition Object
  NoSun,                                  !- Sun Exposure
  NoWind,                                 !- Wind Exposure
  ,                                       !- View Factor to Ground
  ,                                       !- Number of Vertices
  0, 0, 5,                                !- X,Y,Z Vertex 1 {m}
  0, 40, 5,                               !- X,Y,Z Vertex 2 {m}
  0, 40, 0,                               !- X,Y,Z Vertex 3 {m}
  0, 0, 0;                                !- X,Y,Z Vertex 4 {m}

ZoneInfiltration:DesignFlowRate,
  Story 1 Core Space HVAC Off Infiltration, !- Name
  Story 1 Core Space,                     !- Zone or ZoneList or Space or SpaceList Name
  Infiltration HVAC Off Schedule,         !- Schedule Name
  Flow/ExteriorArea,                      !- Design Flow Rate Calculation Method
  ,                                       !- Design Flow Rate {m3/s}
  ,                                       !- Flow Rate per Floor Area {m3/s-m2}
  0.000570329398838798,                   !- Flow Rate per Exterior Surface Area {m3/s-m2}
  ,                                       !- Air Changes per Hour {1/hr}
  0,                                      !- Constant Term Coefficient
  0.0112,                                 !- Temperature Term Coefficient
  0,                                      !- Velocity Term Coefficient
  0.0523,                                 !- Velocity Squared Term Coefficient
  Outdoor;                                !- Density Basis

ZoneInfiltration:DesignFlowRate,
  Story 1 Core Space HVAC On Infiltration, !- Name
  Story 1 Core Space,                     !- Zone or ZoneList or Space or SpaceList Name
  Infiltration HVAC On Schedule,          !- Schedule Name
  Flow/ExteriorArea,                      !- Design Flow Rate Calculation Method
  ,                                       !- Design Flow Rate {m3/s}
  ,                                       !- Flow Rate per Floor Area {m3/s-m2}
  0.000570329398838798,                   !- Flow Rate per Exterior Surface Area {m3/s-m2}
  ,                                       !- Air Changes per Hour {1/hr}
  -0.0581,                                !- Constant Term Coefficient
  0.0073,                                 !- Temperature Term Coefficient
  0,                                      !- Velocity Term Coefficient
  0.0436,                                 !- Velocity Squared Term Coefficient
  Outdoor;                                !- Density Basis

Zone,
  Story 1 East Perimeter Thermal Zone,    !- Name
  -0,                                     !- Direction of Relative North {deg}
  95,                                     !- X Origin {m}
  5,                                      !- Y Origin {m}
  0,                                      !- Z Origin {m}
  ,                                       !- Type
  1,                                      !- Multiplier
  ,                                       !- Ceiling Height {m}
  ,                                       !- Volume {m3}
  ,                                       !- Floor Area {m2}
  ,                                       !- Zone Inside Convection Algorithm
  ,                                       !- Zone Outside Convection Algorithm
  Yes;                                    !- Part of Total Floor Area

Space,
  Story 1 East Perimeter Space,           !- Name
  Story 1 East Perimeter Thermal Zone,    !- Zone Name
  ,                                       !- Ceiling Height {m}
  ,                                       !- Volume {m3}
  ,                                       !- Floor Area {m2}
  Baseline Model Space Type;              !- Space Type

BuildingSurface:Detailed,
  Story 1 East Perimeter Space Exterior Ground Floor, !- Name
  Floor,                                  !- Surface Type
  Foundation F 0.9W/m*K Perim 50.0m Area 225.0m2, !- Construction Name
  Story 1 East Perimeter Thermal Zone,    !- Zone Name
  Story 1 East Perimeter Space,           !- Space Name
  GroundFCfactorMethod,                   !- Outside Boundary Condition
  ,                                       !- Outside Boundary Condition Object
  NoSun,                                  !- Sun Exposure
  NoWind,                                 !- Wind Exposure
  ,                                       !- View Factor to Ground
  ,                                       !- Number of Vertices
  5, 45, 0,                               !- X,Y,Z Vertex 1 {m}
  5, -5, 0,                               !- X,Y,Z Vertex 2 {m}
  0, 0, 0,                                !- X,Y,Z Vertex 3 {m}
  0, 40, 0;                               !- X,Y,Z Vertex 4 {m}

BuildingSurface:Detailed,
  Story 1 East Perimeter Space Exterior Roof, !- Name
  Roof,                                   !- Surface Type
  Typical IEAD Roof R-31.25,              !- Construction Name
  Story 1 East Perimeter Thermal Zone,    !- Zone Name
  Story 1 East Perimeter Space,           !- Space Name
  Outdoors,                               !- Outside Boundary Condition
  ,                                       !- Outside Boundary Condition Object
  SunExposed,                             !- Sun Exposure
  WindExposed,                            !- Wind Exposure
  ,                                       !- View Factor to Ground
  ,                                       !- Number of Vertices
  0, 40, 5,                               !- X,Y,Z Vertex 1 {m}
  0, 0, 5,                                !- X,Y,Z Vertex 2 {m}
  5, -5, 5,                               !- X,Y,Z Vertex 3 {m}
  5, 45, 5;                               !- X,Y,Z Vertex 4 {m}

BuildingSurface:Detailed,
  Story 1 East Perimeter Space Exterior Wall, !- Name
  Wall,                                   !- Surface Type
  Typical Insulated Exterior Mass Wall R-9.62, !- Construction Name
  Story 1 East Perimeter Thermal Zone,    !- Zone Name
  Story 1 East Perimeter Space,           !- Space Name
  Outdoors,                               !- Outside Boundary Condition
  ,                                       !- Outside Boundary Condition Object
  SunExposed,                             !- Sun Exposure
  WindExposed,                            !- Wind Exposure
  ,                                       !- View Factor to Ground
  ,                                       !- Number of Vertices
  5, 45, 5,                               !- X,Y,Z Vertex 1 {m}
  5, -5, 5,                               !- X,Y,Z Vertex 2 {m}
  5, -5, 0,                               !- X,Y,Z Vertex 3 {m}
  5, 45, 0;                               !- X,Y,Z Vertex 4 {m}

FenestrationSurface:Detailed,
  Story 1 East Perimeter Space Exterior Wall Window, !- Name
  Window,                                 !- Surface Type
  U 0.36 SHGC 0.36 Simple Glazing,        !- Construction Name
  Story 1 East Perimeter Space Exterior Wall, !- Building Surface Name
  ,                                       !- Outside Boundary Condition Object
  ,                                       !- View Factor to Ground
  ,                                       !- Frame and Divider Name
  ,                                       !- Multiplier
  ,                                       !- Number of Vertices
  5, -4.9746, 2.00101703330584,           !- X,Y,Z Vertex 1 {m}
  5, -4.9746, 1,                          !- X,Y,Z Vertex 2 {m}
  5, 44.9746, 1,                          !- X,Y,Z Vertex 3 {m}
  5, 44.9746, 2.00101703330584;           !- X,Y,Z Vertex 4 {m}

BuildingSurface:Detailed,
  Story 1 East Perimeter Space to Story 1 Core Space Interior Wall, !- Name
  Wall,                                   !- Surface Type
  Typical Interior Wall,                  !- Construction Name
  Story 1 East Perimeter Thermal Zone,    !- Zone Name
  Story 1 East Perimeter Space,           !- Space Name
  Surface,                                !- Outside Boundary Condition
  Story 1 Core Space to Story 1 East Perimeter Space Interior Wall, !- Outside Boundary Condition Object
  NoSun,                                  !- Sun Exposure
  NoWind,                                 !- Wind Exposure
  ,                                       !- View Factor to Ground
  ,                                       !- Number of Vertices
  0, 0, 5,                                !- X,Y,Z Vertex 1 {m}
  0, 40, 5,                               !- X,Y,Z Vertex 2 {m}
  0, 40, 0,                               !- X,Y,Z Vertex 3 {m}
  0, 0, 0;                                !- X,Y,Z Vertex 4 {m}

BuildingSurface:Detailed,
  Story 1 East Perimeter Space to Story 1 North Perimeter Space Interior Wall, !- Name
  Wall,                                   !- Surface Type
  Typical Interior Wall,                  !- Construction Name
  Story 1 East Perimeter Thermal Zone,    !- Zone Name
  Story 1 East Perimeter Space,           !- Space Name
  Surface,                                !- Outside Boundary Condition
  Story 1 North Perimeter Space to Story 1 East Perimeter Space Interior Wall, !- Outside Boundary Condition Object
  NoSun,                                  !- Sun Exposure
  NoWind,                                 !- Wind Exposure
  ,                                       !- View Factor to Ground
  ,                                       !- Number of Vertices
  0, 40, 5,                               !- X,Y,Z Vertex 1 {m}
  5, 45, 5,                               !- X,Y,Z Vertex 2 {m}
  5, 45, 0,                               !- X,Y,Z Vertex 3 {m}
  0, 40, 0;                               !- X,Y,Z Vertex 4 {m}

BuildingSurface:Detailed,
  Story 1 East Perimeter Space to Story 1 South Perimeter Space Interior Wall, !- Name
  Wall,                                   !- Surface Type
  Typical Interior Wall,                  !- Construction Name
  Story 1 East Perimeter Thermal Zone,    !- Zone Name
  Story 1 East Perimeter Space,           !- Space Name
  Surface,                                !- Outside Boundary Condition
  Story 1 South Perimeter Space to Story 1 East Perimeter Space Interior Wall, !- Outside Boundary Condition Object
  NoSun,                                  !- Sun Exposure
  NoWind,                                 !- Wind Exposure
  ,                                       !- View Factor to Ground
  ,                                       !- Number of Vertices
  5, -5, 5,                               !- X,Y,Z Vertex 1 {m}
  0, 0, 5,                                !- X,Y,Z Vertex 2 {m}
  0, 0, 0,                                !- X,Y,Z Vertex 3 {m}
  5, -5, 0;                               !- X,Y,Z Vertex 4 {m}

ZoneInfiltration:DesignFlowRate,
  Story 1 East Perimeter Space HVAC Off Infiltration, !- Name
  Story 1 East Perimeter Space,           !- Zone or ZoneList or Space or SpaceList Name
  Infiltration HVAC Off Schedule,         !- Schedule Name
  Flow/ExteriorArea,                      !- Design Flow Rate Calculation Method
  ,                                       !- Design Flow Rate {m3/s}
  ,                                       !- Flow Rate per Floor Area {m3/s-m2}
  0.000570329398838798,                   !- Flow Rate per Exterior Surface Area {m3/s-m2}
  ,                                       !- Air Changes per Hour {1/hr}
  0,                                      !- Constant Term Coefficient
  0.0112,                                 !- Temperature Term Coefficient
  0,                                      !- Velocity Term Coefficient
  0.0523,                                 !- Velocity Squared Term Coefficient
  Outdoor;                                !- Density Basis

ZoneInfiltration:DesignFlowRate,
  Story 1 East Perimeter Space HVAC On Infiltration, !- Name
  Story 1 East Perimeter Space,           !- Zone or ZoneList or Space or SpaceList Name
  Infiltration HVAC On Schedule,          !- Schedule Name
  Flow/ExteriorArea,                      !- Design Flow Rate Calculation Method
  ,                                       !- Design Flow Rate {m3/s}
  ,                                       !- Flow Rate per Floor Area {m3/s-m2}
  0.000570329398838798,                   !- Flow Rate per Exterior Surface Area {m3/s-m2}
  ,                                       !- Air Changes per Hour {1/hr}
  -0.0581,                                !- Constant Term Coefficient
  0.0073,                                 !- Temperature Term Coefficient
  0,                                      !- Velocity Term Coefficient
  0.0436,                                 !- Velocity Squared Term Coefficient
  Outdoor;                                !- Density Basis

Zone,
  Story 1 North Perimeter Thermal Zone,   !- Name
  -0,                                     !- Direction of Relative North {deg}
  5,                                      !- X Origin {m}
  45,                                     !- Y Origin {m}
  0,                                      !- Z Origin {m}
  ,                                       !- Type
  1,                                      !- Multiplier
  ,                                       !- Ceiling Height {m}
  ,                                       !- Volume {m3}
  ,                                       !- Floor Area {m2}
  ,                                       !- Zone Inside Convection Algorithm
  ,                                       !- Zone Outside Convection Algorithm
  Yes;                                    !- Part of Total Floor Area

Space,
  Story 1 North Perimeter Space,          !- Name
  Story 1 North Perimeter Thermal Zone,   !- Zone Name
  ,                                       !- Ceiling Height {m}
  ,                                       !- Volume {m3}
  ,                                       !- Floor Area {m2}
  Baseline Model Space Type;              !- Space Type

BuildingSurface:Detailed,
  Story 1 North Perimeter Space Exterior Ground Floor, !- Name
  Floor,                                  !- Surface Type
  Foundation F 0.9W/m*K Perim 100.0m Area 475.0m2, !- Construction Name
  Story 1 North Perimeter Thermal Zone,   !- Zone Name
  Story 1 North Perimeter Space,          !- Space Name
  GroundFCfactorMethod,                   !- Outside Boundary Condition
  ,                                       !- Outside Boundary Condition Object
  NoSun,                                  !- Sun Exposure
  NoWind,                                 !- Wind Exposure
  ,                                       !- View Factor to Ground
  ,                                       !- Number of Vertices
  -5, 5, 0,                               !- X,Y,Z Vertex 1 {m}
  95, 5, 0,                               !- X,Y,Z Vertex 2 {m}
  90, 0, 0,                               !- X,Y,Z Vertex 3 {m}
  0, 0, 0;                                !- X,Y,Z Vertex 4 {m}

BuildingSurface:Detailed,
  Story 1 North Perimeter Space Exterior Roof, !- Name
  Roof,                                   !- Surface Type
  Typical IEAD Roof R-31.25,              !- Construction Name
  Story 1 North Perimeter Thermal Zone,   !- Zone Name
  Story 1 North Perimeter Space,          !- Space Name
  Outdoors,                               !- Outside Boundary Condition
  ,                                       !- Outside Boundary Condition Object
  SunExposed,                             !- Sun Exposure
  WindExposed,                            !- Wind Exposure
  ,                                       !- View Factor to Ground
  ,                                       !- Number of Vertices
  0, 0, 5,                                !- X,Y,Z Vertex 1 {m}
  90, 0, 5,                               !- X,Y,Z Vertex 2 {m}
  95, 5, 5,                               !- X,Y,Z Vertex 3 {m}
  -5, 5, 5;                               !- X,Y,Z Vertex 4 {m}

BuildingSurface:Detailed,
  Story 1 North Perimeter Space Exterior Wall, !- Name
  Wall,                                   !- Surface Type
  Typical Insulated Exterior Mass Wall R-9.62, !- Construction Name
  Story 1 North Perimeter Thermal Zone,   !- Zone Name
  Story 1 North Perimeter Space,          !- Space Name
  Outdoors,                               !- Outside Boundary Condition
  ,                                       !- Outside Boundary Condition Object
  SunExposed,                             !- Sun Exposure
  WindExposed,                            !- Wind Exposure
  ,                                       !- View Factor to Ground
  ,                                       !- Number of Vertices
  -5, 5, 5,                               !- X,Y,Z Vertex 1 {m}
  95, 5, 5,                               !- X,Y,Z Vertex 2 {m}
  95, 5, 0,                               !- X,Y,Z Vertex 3 {m}
  -5, 5, 0;                               !- X,Y,Z Vertex 4 {m}

FenestrationSurface:Detailed,
  Story 1 North Perimeter Space Exterior Wall Window, !- Name
  Window,                                 !- Surface Type
  U 0.36 SHGC 0.36 Simple Glazing,        !- Construction Name
  Story 1 North Perimeter Space Exterior Wall, !- Building Surface Name
  ,                                       !- Outside Boundary Condition Object
  ,                                       !- View Factor to Ground
  ,                                       !- Frame and Divider Name
  ,                                       !- Multiplier
  ,                                       !- Number of Vertices
  94.9746, 5, 2.00050825819516,           !- X,Y,Z Vertex 1 {m}
  94.9746, 5, 1,                          !- X,Y,Z Vertex 2 {m}
  -4.97460000000001, 5, 1,                !- X,Y,Z Vertex 3 {m}
  -4.97460000000001, 5, 2.00050825819516; !- X,Y,Z Vertex 4 {m}

BuildingSurface:Detailed,
  Story 1 North Perimeter Space to Story 1 Core Space Interior Wall, !- Name
  Wall,                                   !- Surface Type
  Typical Interior Wall,                  !- Construction Name
  Story 1 North Perimeter Thermal Zone,   !- Zone Name
  Story 1 North Perimeter Space,          !- Space Name
  Surface,                                !- Outside Boundary Condition
  Story 1 Core Space to Story 1 North Perimeter Space Interior Wall, !- Outside Boundary Condition Object
  NoSun,                                  !- Sun Exposure
  NoWind,                                 !- Wind Exposure
  ,                                       !- View Factor to Ground
  ,                                       !- Number of Vertices
  90, 0, 5,                               !- X,Y,Z Vertex 1 {m}
  0, 0, 5,                                !- X,Y,Z Vertex 2 {m}
  0, 0, 0,                                !- X,Y,Z Vertex 3 {m}
  90, 0, 0;                               !- X,Y,Z Vertex 4 {m}

BuildingSurface:Detailed,
  Story 1 North Perimeter Space to Story 1 East Perimeter Space Interior Wall, !- Name
  Wall,                                   !- Surface Type
  Typical Interior Wall,                  !- Construction Name
  Story 1 North Perimeter Thermal Zone,   !- Zone Name
  Story 1 North Perimeter Space,          !- Space Name
  Surface,                                !- Outside Boundary Condition
  Story 1 East Perimeter Space to Story 1 North Perimeter Space Interior Wall, !- Outside Boundary Condition Object
  NoSun,                                  !- Sun Exposure
  NoWind,                                 !- Wind Exposure
  ,                                       !- View Factor to Ground
  ,                                       !- Number of Vertices
  95, 5, 5,                               !- X,Y,Z Vertex 1 {m}
  90, 0, 5,                               !- X,Y,Z Vertex 2 {m}
  90, 0, 0,                               !- X,Y,Z Vertex 3 {m}
  95, 5, 0;                               !- X,Y,Z Vertex 4 {m}

BuildingSurface:Detailed,
  Story 1 North Perimeter Space to Story 1 West Perimeter Space Interior Wall, !- Name
  Wall,                                   !- Surface Type
  Typical Interior Wall,                  !- Construction Name
  Story 1 North Perimeter Thermal Zone,   !- Zone Name
  Story 1 North Perimeter Space,          !- Space Name
  Surface,                                !- Outside Boundary Condition
  Story 1 West Perimeter Space to Story 1 North Perimeter Space Interior Wall, !- Outside Boundary Condition Object
  NoSun,                                  !- Sun Exposure
  NoWind,                                 !- Wind Exposure
  ,                                       !- View Factor to Ground
  ,                                       !- Number of Vertices
  0, 0, 5,                                !- X,Y,Z Vertex 1 {m}
  -5, 5, 5,                               !- X,Y,Z Vertex 2 {m}
  -5, 5, 0,                               !- X,Y,Z Vertex 3 {m}
  0, 0, 0;                                !- X,Y,Z Vertex 4 {m}

ZoneInfiltration:DesignFlowRate,
  Story 1 North Perimeter Space HVAC Off Infiltration, !- Name
  Story 1 North Perimeter Space,          !- Zone or ZoneList or Space or SpaceList Name
  Infiltration HVAC Off Schedule,         !- Schedule Name
  Flow/ExteriorArea,                      !- Design Flow Rate Calculation Method
  ,                                       !- Design Flow Rate {m3/s}
  ,                                       !- Flow Rate per Floor Area {m3/s-m2}
  0.000570329398838798,                   !- Flow Rate per Exterior Surface Area {m3/s-m2}
  ,                                       !- Air Changes per Hour {1/hr}
  0,                                      !- Constant Term Coefficient
  0.0112,                                 !- Temperature Term Coefficient
  0,                                      !- Velocity Term Coefficient
  0.0523,                                 !- Velocity Squared Term Coefficient
  Outdoor;                                !- Density Basis

ZoneInfiltration:DesignFlowRate,
  Story 1 North Perimeter Space HVAC On Infiltration, !- Name
  Story 1 North Perimeter Space,          !- Zone or ZoneList or Space or SpaceList Name
  Infiltration HVAC On Schedule,          !- Schedule Name
  Flow/ExteriorArea,                      !- Design Flow Rate Calculation Method
  ,                                       !- Design Flow Rate {m3/s}
  ,                                       !- Flow Rate per Floor Area {m3/s-m2}
  0.000570329398838798,                   !- Flow Rate per Exterior Surface Area {m3/s-m2}
  ,                                       !- Air Changes per Hour {1/hr}
  -0.0581,                                !- Constant Term Coefficient
  0.0073,                                 !- Temperature Term Coefficient
  0,                                      !- Velocity Term Coefficient
  0.0436,                                 !- Velocity Squared Term Coefficient
  Outdoor;                                !- Density Basis

Zone,
  Story 1 South Perimeter Thermal Zone,   !- Name
  -0,                                     !- Direction of Relative North {deg}
  0,                                      !- X Origin {m}
  0,                                      !- Y Origin {m}
  0,                                      !- Z Origin {m}
  ,                                       !- Type
  1,                                      !- Multiplier
  ,                                       !- Ceiling Height {m}
  ,                                       !- Volume {m3}
  ,                                       !- Floor Area {m2}
  ,                                       !- Zone Inside Convection Algorithm
  ,                                       !- Zone Outside Convection Algorithm
  Yes;                                    !- Part of Total Floor Area

Space,
  Story 1 South Perimeter Space,          !- Name
  Story 1 South Perimeter Thermal Zone,   !- Zone Name
  ,                                       !- Ceiling Height {m}
  ,                                       !- Volume {m3}
  ,                                       !- Floor Area {m2}
  Baseline Model Space Type;              !- Space Type

BuildingSurface:Detailed,
  Story 1 South Perimeter Space Exterior Ground Floor, !- Name
  Floor,                                  !- Surface Type
  Foundation F 0.9W/m*K Perim 100.0m Area 475.0m2, !- Construction Name
  Story 1 South Perimeter Thermal Zone,   !- Zone Name
  Story 1 South Perimeter Space,          !- Space Name
  GroundFCfactorMethod,                   !- Outside Boundary Condition
  ,                                       !- Outside Boundary Condition Object
  NoSun,                                  !- Sun Exposure
  NoWind,                                 !- Wind Exposure
  ,                                       !- View Factor to Ground
  ,                                       !- Number of Vertices
  100, 0, 0,                              !- X,Y,Z Vertex 1 {m}
  0, 0, 0,                                !- X,Y,Z Vertex 2 {m}
  5, 5, 0,                                !- X,Y,Z Vertex 3 {m}
  95, 5, 0;                               !- X,Y,Z Vertex 4 {m}

BuildingSurface:Detailed,
  Story 1 South Perimeter Space Exterior Roof, !- Name
  Roof,                                   !- Surface Type
  Typical IEAD Roof R-31.25,              !- Construction Name
  Story 1 South Perimeter Thermal Zone,   !- Zone Name
  Story 1 South Perimeter Space,          !- Space Name
  Outdoors,                               !- Outside Boundary Condition
  ,                                       !- Outside Boundary Condition Object
  SunExposed,                             !- Sun Exposure
  WindExposed,                            !- Wind Exposure
  ,                                       !- View Factor to Ground
  ,                                       !- Number of Vertices
  95, 5, 5,                               !- X,Y,Z Vertex 1 {m}
  5, 5, 5,                                !- X,Y,Z Vertex 2 {m}
  0, 0, 5,                                !- X,Y,Z Vertex 3 {m}
  100, 0, 5;                              !- X,Y,Z Vertex 4 {m}

BuildingSurface:Detailed,
  Story 1 South Perimeter Space Exterior Wall, !- Name
  Wall,                                   !- Surface Type
  Typical Insulated Exterior Mass Wall R-9.62, !- Construction Name
  Story 1 South Perimeter Thermal Zone,   !- Zone Name
  Story 1 South Perimeter Space,          !- Space Name
  Outdoors,                               !- Outside Boundary Condition
  ,                                       !- Outside Boundary Condition Object
  SunExposed,                             !- Sun Exposure
  WindExposed,                            !- Wind Exposure
  ,                                       !- View Factor to Ground
  ,                                       !- Number of Vertices
  100, 0, 5,                              !- X,Y,Z Vertex 1 {m}
  0, 0, 5,                                !- X,Y,Z Vertex 2 {m}
  0, 0, 0,                                !- X,Y,Z Vertex 3 {m}
  100, 0, 0;                              !- X,Y,Z Vertex 4 {m}

FenestrationSurface:Detailed,
  Story 1 South Perimeter Space Exterior Wall Window, !- Name
  Window,                                 !- Surface Type
  U 0.36 SHGC 0.36 Simple Glazing,        !- Construction Name
  Story 1 South Perimeter Space Exterior Wall, !- Building Surface Name
  ,                                       !- Outside Boundary Condition Object
  ,                                       !- View Factor to Ground
  ,                                       !- Frame and Divider Name
  ,                                       !- Multiplier
  ,                                       !- Number of Vertices
  0.0254, 0, 2.00050825819516,            !- X,Y,Z Vertex 1 {m}
  0.0254, 0, 1,                           !- X,Y,Z Vertex 2 {m}
  99.9746, 0, 1,                          !- X,Y,Z Vertex 3 {m}
  99.9746, 0, 2.00050825819516;           !- X,Y,Z Vertex 4 {m}

BuildingSurface:Detailed,
  Story 1 South Perimeter Space to Story 1 Core Space Interior Wall, !- Name
  Wall,                                   !- Surface Type
  Typical Interior Wall,                  !- Construction Name
  Story 1 South Perimeter Thermal Zone,   !- Zone Name
  Story 1 South Perimeter Space,          !- Space Name
  Surface,                                !- Outside Boundary Condition
  Story 1 Core Space to Story 1 South Perimeter Space Interior Wall, !- Outside Boundary Condition Object
  NoSun,                                  !- Sun Exposure
  NoWind,                                 !- Wind Exposure
  ,                                       !- View Factor to Ground
  ,                                       !- Number of Vertices
  5, 5, 5,                                !- X,Y,Z Vertex 1 {m}
  95, 5, 5,                               !- X,Y,Z Vertex 2 {m}
  95, 5, 0,                               !- X,Y,Z Vertex 3 {m}
  5, 5, 0;                                !- X,Y,Z Vertex 4 {m}

BuildingSurface:Detailed,
  Story 1 South Perimeter Space to Story 1 East Perimeter Space Interior Wall, !- Name
  Wall,                                   !- Surface Type
  Typical Interior Wall,                  !- Construction Name
  Story 1 South Perimeter Thermal Zone,   !- Zone Name
  Story 1 South Perimeter Space,          !- Space Name
  Surface,                                !- Outside Boundary Condition
  Story 1 East Perimeter Space to Story 1 South Perimeter Space Interior Wall, !- Outside Boundary Condition Object
  NoSun,                                  !- Sun Exposure
  NoWind,                                 !- Wind Exposure
  ,                                       !- View Factor to Ground
  ,                                       !- Number of Vertices
  95, 5, 5,                               !- X,Y,Z Vertex 1 {m}
  100, 0, 5,                              !- X,Y,Z Vertex 2 {m}
  100, 0, 0,                              !- X,Y,Z Vertex 3 {m}
  95, 5, 0;                               !- X,Y,Z Vertex 4 {m}

BuildingSurface:Detailed,
  Story 1 South Perimeter Space to Story 1 West Perimeter Space Interior Wall, !- Name
  Wall,                                   !- Surface Type
  Typical Interior Wall,                  !- Construction Name
  Story 1 South Perimeter Thermal Zone,   !- Zone Name
  Story 1 South Perimeter Space,          !- Space Name
  Surface,                                !- Outside Boundary Condition
  Story 1 West Perimeter Space to Story 1 South Perimeter Space Interior Wall, !- Outside Boundary Condition Object
  NoSun,                                  !- Sun Exposure
  NoWind,                                 !- Wind Exposure
  ,                                       !- View Factor to Ground
  ,                                       !- Number of Vertices
  0, 0, 5,                                !- X,Y,Z Vertex 1 {m}
  5, 5, 5,                                !- X,Y,Z Vertex 2 {m}
  5, 5, 0,                                !- X,Y,Z Vertex 3 {m}
  0, 0, 0;                                !- X,Y,Z Vertex 4 {m}

ZoneInfiltration:DesignFlowRate,
  Story 1 South Perimeter Space HVAC Off Infiltration, !- Name
  Story 1 South Perimeter Space,          !- Zone or ZoneList or Space or SpaceList Name
  Infiltration HVAC Off Schedule,         !- Schedule Name
  Flow/ExteriorArea,                      !- Design Flow Rate Calculation Method
  ,                                       !- Design Flow Rate {m3/s}
  ,                                       !- Flow Rate per Floor Area {m3/s-m2}
  0.000570329398838798,                   !- Flow Rate per Exterior Surface Area {m3/s-m2}
  ,                                       !- Air Changes per Hour {1/hr}
  0,                                      !- Constant Term Coefficient
  0.0112,                                 !- Temperature Term Coefficient
  0,                                      !- Velocity Term Coefficient
  0.0523,                                 !- Velocity Squared Term Coefficient
  Outdoor;                                !- Density Basis

ZoneInfiltration:DesignFlowRate,
  Story 1 South Perimeter Space HVAC On Infiltration, !- Name
  Story 1 South Perimeter Space,          !- Zone or ZoneList or Space or SpaceList Name
  Infiltration HVAC On Schedule,          !- Schedule Name
  Flow/ExteriorArea,                      !- Design Flow Rate Calculation Method
  ,                                       !- Design Flow Rate {m3/s}
  ,                                       !- Flow Rate per Floor Area {m3/s-m2}
  0.000570329398838798,                   !- Flow Rate per Exterior Surface Area {m3/s-m2}
  ,                                       !- Air Changes per Hour {1/hr}
  -0.0581,                                !- Constant Term Coefficient
  0.0073,                                 !- Temperature Term Coefficient
  0,                                      !- Velocity Term Coefficient
  0.0436,                                 !- Velocity Squared Term Coefficient
  Outdoor;                                !- Density Basis

Zone,
  Story 1 West Perimeter Thermal Zone,    !- Name
  -0,                                     !- Direction of Relative North {deg}
  0,                                      !- X Origin {m}
  0,                                      !- Y Origin {m}
  0,                                      !- Z Origin {m}
  ,                                       !- Type
  1,                                      !- Multiplier
  ,                                       !- Ceiling Height {m}
  ,                                       !- Volume {m3}
  ,                                       !- Floor Area {m2}
  ,                                       !- Zone Inside Convection Algorithm
  ,                                       !- Zone Outside Convection Algorithm
  Yes;                                    !- Part of Total Floor Area

Space,
  Story 1 West Perimeter Space,           !- Name
  Story 1 West Perimeter Thermal Zone,    !- Zone Name
  ,                                       !- Ceiling Height {m}
  ,                                       !- Volume {m3}
  ,                                       !- Floor Area {m2}
  Baseline Model Space Type;              !- Space Type

BuildingSurface:Detailed,
  Story 1 West Perimeter Space Exterior Ground Floor, !- Name
  Floor,                                  !- Surface Type
  Foundation F 0.9W/m*K Perim 50.0m Area 225.0m2, !- Construction Name
  Story 1 West Perimeter Thermal Zone,    !- Zone Name
  Story 1 West Perimeter Space,           !- Space Name
  GroundFCfactorMethod,                   !- Outside Boundary Condition
  ,                                       !- Outside Boundary Condition Object
  NoSun,                                  !- Sun Exposure
  NoWind,                                 !- Wind Exposure
  ,                                       !- View Factor to Ground
  ,                                       !- Number of Vertices
  0, 0, 0,                                !- X,Y,Z Vertex 1 {m}
  0, 50, 0,                               !- X,Y,Z Vertex 2 {m}
  5, 45, 0,                               !- X,Y,Z Vertex 3 {m}
  5, 5, 0;                                !- X,Y,Z Vertex 4 {m}

BuildingSurface:Detailed,
  Story 1 West Perimeter Space Exterior Roof, !- Name
  Roof,                                   !- Surface Type
  Typical IEAD Roof R-31.25,              !- Construction Name
  Story 1 West Perimeter Thermal Zone,    !- Zone Name
  Story 1 West Perimeter Space,           !- Space Name
  Outdoors,                               !- Outside Boundary Condition
  ,                                       !- Outside Boundary Condition Object
  SunExposed,                             !- Sun Exposure
  WindExposed,                            !- Wind Exposure
  ,                                       !- View Factor to Ground
  ,                                       !- Number of Vertices
  5, 5, 5,                                !- X,Y,Z Vertex 1 {m}
  5, 45, 5,                               !- X,Y,Z Vertex 2 {m}
  0, 50, 5,                               !- X,Y,Z Vertex 3 {m}
  0, 0, 5;                                !- X,Y,Z Vertex 4 {m}

BuildingSurface:Detailed,
  Story 1 West Perimeter Space Exterior Wall, !- Name
  Wall,                                   !- Surface Type
  Typical Insulated Exterior Mass Wall R-9.62, !- Construction Name
  Story 1 West Perimeter Thermal Zone,    !- Zone Name
  Story 1 West Perimeter Space,           !- Space Name
  Outdoors,                               !- Outside Boundary Condition
  ,                                       !- Outside Boundary Condition Object
  SunExposed,                             !- Sun Exposure
  WindExposed,                            !- Wind Exposure
  ,                                       !- View Factor to Ground
  ,                                       !- Number of Vertices
  0, 0, 5,                                !- X,Y,Z Vertex 1 {m}
  0, 50, 5,                               !- X,Y,Z Vertex 2 {m}
  0, 50, 0,                               !- X,Y,Z Vertex 3 {m}
  0, 0, 0;                                !- X,Y,Z Vertex 4 {m}

FenestrationSurface:Detailed,
  Story 1 West Perimeter Space Exterior Wall Window, !- Name
  Window,                                 !- Surface Type
  U 0.36 SHGC 0.36 Simple Glazing,        !- Construction Name
  Story 1 West Perimeter Space Exterior Wall, !- Building Surface Name
  ,                                       !- Outside Boundary Condition Object
  ,                                       !- View Factor to Ground
  ,                                       !- Frame and Divider Name
  ,                                       !- Multiplier
  ,                                       !- Number of Vertices
  0, 49.9746, 2.00101703330584,           !- X,Y,Z Vertex 1 {m}
  0, 49.9746, 1,                          !- X,Y,Z Vertex 2 {m}
  0, 0.0254000000000048, 1,               !- X,Y,Z Vertex 3 {m}
  0, 0.0254000000000048, 2.00101703330584; !- X,Y,Z Vertex 4 {m}

BuildingSurface:Detailed,
  Story 1 West Perimeter Space to Story 1 Core Space Interior Wall, !- Name
  Wall,                                   !- Surface Type
  Typical Interior Wall,                  !- Construction Name
  Story 1 West Perimeter Thermal Zone,    !- Zone Name
  Story 1 West Perimeter Space,           !- Space Name
  Surface,                                !- Outside Boundary Condition
  Story 1 Core Space to Story 1 West Perimeter Space Interior Wall, !- Outside Boundary Condition Object
  NoSun,                                  !- Sun Exposure
  NoWind,                                 !- Wind Exposure
  ,                                       !- View Factor to Ground
  ,                                       !- Number of Vertices
  5, 45, 5,                               !- X,Y,Z Vertex 1 {m}
  5, 5, 5,                                !- X,Y,Z Vertex 2 {m}
  5, 5, 0,                                !- X,Y,Z Vertex 3 {m}
  5, 45, 0;                               !- X,Y,Z Vertex 4 {m}

BuildingSurface:Detailed,
  Story 1 West Perimeter Space to Story 1 North Perimeter Space Interior Wall, !- Name
  Wall,                                   !- Surface Type
  Typical Interior Wall,                  !- Construction Name
  Story 1 West Perimeter Thermal Zone,    !- Zone Name
  Story 1 West Perimeter Space,           !- Space Name
  Surface,                                !- Outside Boundary Condition
  Story 1 North Perimeter Space to Story 1 West Perimeter Space Interior Wall, !- Outside Boundary Condition Object
  NoSun,                                  !- Sun Exposure
  NoWind,                                 !- Wind Exposure
  ,                                       !- View Factor to Ground
  ,                                       !- Number of Vertices
  0, 50, 5,                               !- X,Y,Z Vertex 1 {m}
  5, 45, 5,                               !- X,Y,Z Vertex 2 {m}
  5, 45, 0,                               !- X,Y,Z Vertex 3 {m}
  0, 50, 0;                               !- X,Y,Z Vertex 4 {m}

BuildingSurface:Detailed,
  Story 1 West Perimeter Space to Story 1 South Perimeter Space Interior Wall, !- Name
  Wall,                                   !- Surface Type
  Typical Interior Wall,                  !- Construction Name
  Story 1 West Perimeter Thermal Zone,    !- Zone Name
  Story 1 West Perimeter Space,           !- Space Name
  Surface,                                !- Outside Boundary Condition
  Story 1 South Perimeter Space to Story 1 West Perimeter Space Interior Wall, !- Outside Boundary Condition Object
  NoSun,                                  !- Sun Exposure
  NoWind,                                 !- Wind Exposure
  ,                                       !- View Factor to Ground
  ,                                       !- Number of Vertices
  5, 5, 5,                                !- X,Y,Z Vertex 1 {m}
  0, 0, 5,                                !- X,Y,Z Vertex 2 {m}
  0, 0, 0,                                !- X,Y,Z Vertex 3 {m}
  5, 5, 0;                                !- X,Y,Z Vertex 4 {m}

ZoneInfiltration:DesignFlowRate,
  Story 1 West Perimeter Space HVAC Off Infiltration, !- Name
  Story 1 West Perimeter Space,           !- Zone or ZoneList or Space or SpaceList Name
  Infiltration HVAC Off Schedule,         !- Schedule Name
  Flow/ExteriorArea,                      !- Design Flow Rate Calculation Method
  ,                                       !- Design Flow Rate {m3/s}
  ,                                       !- Flow Rate per Floor Area {m3/s-m2}
  0.000570329398838798,                   !- Flow Rate per Exterior Surface Area {m3/s-m2}
  ,                                       !- Air Changes per Hour {1/hr}
  0,                                      !- Constant Term Coefficient
  0.0112,                                 !- Temperature Term Coefficient
  0,                                      !- Velocity Term Coefficient
  0.0523,                                 !- Velocity Squared Term Coefficient
  Outdoor;                                !- Density Basis

ZoneInfiltration:DesignFlowRate,
  Story 1 West Perimeter Space HVAC On Infiltration, !- Name
  Story 1 West Perimeter Space,           !- Zone or ZoneList or Space or SpaceList Name
  Infiltration HVAC On Schedule,          !- Schedule Name
  Flow/ExteriorArea,                      !- Design Flow Rate Calculation Method
  ,                                       !- Design Flow Rate {m3/s}
  ,                                       !- Flow Rate per Floor Area {m3/s-m2}
  0.000570329398838798,                   !- Flow Rate per Exterior Surface Area {m3/s-m2}
  ,                                       !- Air Changes per Hour {1/hr}
  -0.0581,                                !- Constant Term Coefficient
  0.0073,                                 !- Temperature Term Coefficient
  0,                                      !- Velocity Term Coefficient
  0.0436,                                 !- Velocity Squared Term Coefficient
  Outdoor;                                !- Density Basis

SimulationControl,
  Yes,                                    !- Do Zone Sizing Calculation
  Yes,                                    !- Do System Sizing Calculation
  No,                                     !- Do Plant Sizing Calculation
  Yes,                                    !- Run Simulation for Sizing Periods
  No,                                     !- Run Simulation for Weather File Run Periods
  Yes,                                    !- Do HVAC Sizing Simulation for Sizing Periods
  1;                                      !- Maximum Number of HVAC Sizing Simulation Passes

Sizing:Parameters,
  1.25,                                   !- Heating Sizing Factor
  1.15;                                   !- Cooling Sizing Factor

RunPeriod,
  Run Period 1,                           !- Name
  1,                                      !- Begin Month
  1,                                      !- Begin Day of Month
  2009,                                   !- Begin Year
  12,                                     !- End Month
  31,                                     !- End Day of Month
  2009,                                   !- End Year
  Thursday,                               !- Day of Week for Start Day
  No,                                     !- Use Weather File Holidays and Special Days
  No,                                     !- Use Weather File Daylight Saving Period
  No,                                     !- Apply Weekend Holiday Rule
  Yes,                                    !- Use Weather File Rain Indicators
  Yes;                                    !- Use Weather File Snow Indicators

Output:Table:SummaryReports,
  AllSummary;                             !- Report Name 1

GlobalGeometryRules,
  UpperLeftCorner,                        !- Starting Vertex Position
  Counterclockwise,                       !- Vertex Entry Direction
  Relative,                               !- Coordinate System
  Relative,                               !- Daylighting Reference Point Coordinate System
  Relative;                               !- Rectangular Surface Coordinate System

Material,
  000_F08 Metal surface,                  !- Name
  Smooth,                                 !- Roughness
  0.0008,                                 !- Thickness {m}
  45.28,                                  !- Conductivity {W/m-K}
  7824,                                   !- Density {kg/m3}
  500,                                    !- Specific Heat {J/kg-K}
  0.9,                                    !- Thermal Absorptance
  0.7,                                    !- Solar Absorptance
  0.7;                                    !- Visible Absorptance

Material,
  000_F16 Acoustic tile,                  !- Name
  MediumSmooth,                           !- Roughness
  0.0191,                                 !- Thickness {m}
  0.06,                                   !- Conductivity {W/m-K}
  368,                                    !- Density {kg/m3}
  590,                                    !- Specific Heat {J/kg-K}
  0.9,                                    !- Thermal Absorptance
  0.7,                                    !- Solar Absorptance
  0.7;                                    !- Visible Absorptance

Material,
  000_G01a 19mm gypsum board,             !- Name
  MediumSmooth,                           !- Roughness
  0.019,                                  !- Thickness {m}
  0.16,                                   !- Conductivity {W/m-K}
  800,                                    !- Density {kg/m3}
  1090,                                   !- Specific Heat {J/kg-K}
  0.9,                                    !- Thermal Absorptance
  0.7,                                    !- Solar Absorptance
  0.7;                                    !- Visible Absorptance

Material,
  000_G05 25mm wood,                      !- Name
  MediumSmooth,                           !- Roughness
  0.0254,                                 !- Thickness {m}
  0.15,                                   !- Conductivity {W/m-K}
  608,                                    !- Density {kg/m3}
  1630,                                   !- Specific Heat {J/kg-K}
  0.9,                                    !- Thermal Absorptance
  0.7,                                    !- Solar Absorptance
  0.7;                                    !- Visible Absorptance

Material,
  000_I01 25mm insulation board,          !- Name
  MediumRough,                            !- Roughness
  0.0254,                                 !- Thickness {m}
  0.03,                                   !- Conductivity {W/m-K}
  43,                                     !- Density {kg/m3}
  1210,                                   !- Specific Heat {J/kg-K}
  0.9,                                    !- Thermal Absorptance
  0.7,                                    !- Solar Absorptance
  0.7;                                    !- Visible Absorptance

Material,
  000_M11 100mm lightweight concrete,     !- Name
  MediumRough,                            !- Roughness
  0.1016,                                 !- Thickness {m}
  0.53,                                   !- Conductivity {W/m-K}
  1280,                                   !- Density {kg/m3}
  840,                                    !- Specific Heat {J/kg-K}
  0.9,                                    !- Thermal Absorptance
  0.7,                                    !- Solar Absorptance
  0.7;                                    !- Visible Absorptance

Material,
  1/2IN Gypsum,                           !- Name
  Smooth,                                 !- Roughness
  0.0127,                                 !- Thickness {m}
  0.16,                                   !- Conductivity {W/m-K}
  784.9,                                  !- Density {kg/m3}
  830,                                    !- Specific Heat {J/kg-K}
  0.9,                                    !- Thermal Absorptance
  0.92,                                   !- Solar Absorptance
  0.92;                                   !- Visible Absorptance

Material,
  100mm Normalweight concrete floor,      !- Name
  MediumRough,                            !- Roughness
  0.1016,                                 !- Thickness {m}
  2.31044676686054,                       !- Conductivity {W/m-K}
  2322.00146636525,                       !- Density {kg/m3}
  832.5567858096,                         !- Specific Heat {J/kg-K}
  0.9,                                    !- Thermal Absorptance
  0.7,                                    !- Solar Absorptance
  0.7;                                    !- Visible Absorptance

Material,
  1IN Stucco,                             !- Name
  Smooth,                                 !- Roughness
  0.0253,                                 !- Thickness {m}
  0.691799999999999,                      !- Conductivity {W/m-K}
  1858,                                   !- Density {kg/m3}
  836.999999999999,                       !- Specific Heat {J/kg-K}
  0.9,                                    !- Thermal Absorptance
  0.7,                                    !- Solar Absorptance
  0.92;                                   !- Visible Absorptance

Material,
  4 in. Normalweight Concrete Floor,      !- Name
  MediumRough,                            !- Roughness
  0.1016,                                 !- Thickness {m}
  2.31,                                   !- Conductivity {W/m-K}
  2321.99999999999,                       !- Density {kg/m3}
  831.999999999997,                       !- Specific Heat {J/kg-K}
  0.9,                                    !- Thermal Absorptance
  0.7,                                    !- Solar Absorptance
  0.7;                                    !- Visible Absorptance

Material,
  8 in. Concrete Block Basement Wall,     !- Name
  MediumRough,                            !- Roughness
  0.2032,                                 !- Thickness {m}
  1.326,                                  !- Conductivity {W/m-K}
  1841.99999999999,                       !- Density {kg/m3}
  911.999999999999,                       !- Specific Heat {J/kg-K}
  0.9,                                    !- Thermal Absorptance
  0.7,                                    !- Solar Absorptance
  0.7;                                    !- Visible Absorptance

Material,
  8 in. Normalweight Concrete Floor,      !- Name
  MediumRough,                            !- Roughness
  0.2032,                                 !- Thickness {m}
  2.31,                                   !- Conductivity {W/m-K}
  2321.99999999999,                       !- Density {kg/m3}
  831.999999999997,                       !- Specific Heat {J/kg-K}
  0.9,                                    !- Thermal Absorptance
  0.7,                                    !- Solar Absorptance
  0.7;                                    !- Visible Absorptance

Material,
  8IN CONCRETE HW RefBldg,                !- Name
  Rough,                                  !- Roughness
  0.2032,                                 !- Thickness {m}
  1.311,                                  !- Conductivity {W/m-K}
  2240,                                   !- Density {kg/m3}
  836.800000000001,                       !- Specific Heat {J/kg-K}
  0.9,                                    !- Thermal Absorptance
  0.7,                                    !- Solar Absorptance
  0.7;                                    !- Visible Absorptance

Material,
  F08 Metal surface,                      !- Name
  Smooth,                                 !- Roughness
  0.0008,                                 !- Thickness {m}
  45.2800000000001,                       !- Conductivity {W/m-K}
  7823.99999999999,                       !- Density {kg/m3}
  500,                                    !- Specific Heat {J/kg-K}
  0.9,                                    !- Thermal Absorptance
  0.7,                                    !- Solar Absorptance
  0.7;                                    !- Visible Absorptance

Material,
  G01 13mm gypsum board,                  !- Name
  Smooth,                                 !- Roughness
  0.0127,                                 !- Thickness {m}
  0.160030944416258,                      !- Conductivity {W/m-K}
  800.000505207667,                       !- Density {kg/m3}
  1090.7294438736,                        !- Specific Heat {J/kg-K}
  0.9,                                    !- Thermal Absorptance
  0.7,                                    !- Solar Absorptance
  0.5;                                    !- Visible Absorptance

Material,
  G05 25mm wood,                          !- Name
  MediumSmooth,                           !- Roughness
  0.0254,                                 !- Thickness {m}
  0.15,                                   !- Conductivity {W/m-K}
  608,                                    !- Density {kg/m3}
  1630,                                   !- Specific Heat {J/kg-K}
  0.9,                                    !- Thermal Absorptance
  0.5,                                    !- Solar Absorptance
  0.5;                                    !- Visible Absorptance

Material,
  MAT-CC05 4 HW CONCRETE,                 !- Name
  Rough,                                  !- Roughness
  0.1016,                                 !- Thickness {m}
  1.311,                                  !- Conductivity {W/m-K}
  2240,                                   !- Density {kg/m3}
  836.8,                                  !- Specific Heat {J/kg-K}
  0.9,                                    !- Thermal Absorptance
  0.7,                                    !- Solar Absorptance
  0.7;                                    !- Visible Absorptance

Material,
  Metal Decking,                          !- Name
  MediumSmooth,                           !- Roughness
  0.0015,                                 !- Thickness {m}
  45.006,                                 !- Conductivity {W/m-K}
  7680,                                   !- Density {kg/m3}
  418.4,                                  !- Specific Heat {J/kg-K}
  0.9,                                    !- Thermal Absorptance
  0.7,                                    !- Solar Absorptance
  0.3;                                    !- Visible Absorptance

Material,
  Metal Roof Surface,                     !- Name
  Smooth,                                 !- Roughness
  0.000799999999999998,                   !- Thickness {m}
  45.2799999999999,                       !- Conductivity {W/m-K}
  7823.99999999999,                       !- Density {kg/m3}
  499.999999999996,                       !- Specific Heat {J/kg-K}
  0.9,                                    !- Thermal Absorptance
  0.7,                                    !- Solar Absorptance
  0.7;                                    !- Visible Absorptance

Material,
  Roof Insulation [21],                   !- Name
  MediumRough,                            !- Roughness
  0.2105,                                 !- Thickness {m}
  0.049,                                  !- Conductivity {W/m-K}
  265,                                    !- Density {kg/m3}
  836.8,                                  !- Specific Heat {J/kg-K}
  0.9,                                    !- Thermal Absorptance
  0.7,                                    !- Solar Absorptance
  0.7;                                    !- Visible Absorptance

Material,
  Roof Membrane,                          !- Name
  VeryRough,                              !- Roughness
  0.0095,                                 !- Thickness {m}
  0.16,                                   !- Conductivity {W/m-K}
  1121.29,                                !- Density {kg/m3}
  1460,                                   !- Specific Heat {J/kg-K}
  0.9,                                    !- Thermal Absorptance
  0.7,                                    !- Solar Absorptance
  0.7;                                    !- Visible Absorptance

Material,
  Std Wood 6inch,                         !- Name
  MediumSmooth,                           !- Roughness
  0.15,                                   !- Thickness {m}
  0.12,                                   !- Conductivity {W/m-K}
  540,                                    !- Density {kg/m3}
  1210,                                   !- Specific Heat {J/kg-K}
  0.9,                                    !- Thermal Absorptance
  0.7,                                    !- Solar Absorptance
  0.7;                                    !- Visible Absorptance

Material,
  Wall Insulation [39],                   !- Name
  MediumRough,                            !- Roughness
  0.1184,                                 !- Thickness {m}
  0.045,                                  !- Conductivity {W/m-K}
  265,                                    !- Density {kg/m3}
  836.8,                                  !- Specific Heat {J/kg-K}
  0.9,                                    !- Thermal Absorptance
  0.7,                                    !- Solar Absorptance
  0.7;                                    !- Visible Absorptance

Material:AirGap,
  000_F04 Wall air space resistance,      !- Name
  0.15;                                   !- Thermal Resistance {m2-K/W}

Material:AirGap,
  000_F05 Ceiling air space resistance,   !- Name
  0.18;                                   !- Thermal Resistance {m2-K/W}

Material:NoMass,
  CP02 CARPET PAD,                        !- Name
  VeryRough,                              !- Roughness
  0.2165,                                 !- Thermal Resistance {m2-K/W}
  0.9,                                    !- Thermal Absorptance
  0.7,                                    !- Solar Absorptance
  0.8;                                    !- Visible Absorptance

Material:NoMass,
  MAT-SHEATH,                             !- Name
  Rough,                                  !- Roughness
  0.3626,                                 !- Thermal Resistance {m2-K/W}
  0.9,                                    !- Thermal Absorptance
  0.7,                                    !- Solar Absorptance
  0.7;                                    !- Visible Absorptance

Material:NoMass,
  Typical Carpet Pad,                     !- Name
  Smooth,                                 !- Roughness
  0.216479986995276,                      !- Thermal Resistance {m2-K/W}
  0.9,                                    !- Thermal Absorptance
  0.7,                                    !- Solar Absorptance
  0.8;                                    !- Visible Absorptance

Material:NoMass,
  Typical Insulation R-1.85,              !- Name
  Smooth,                                 !- Roughness
  0.326262145437155,                      !- Thermal Resistance {m2-K/W}
  0.9,                                    !- Thermal Absorptance
  0.7,                                    !- Solar Absorptance
  0.7;                                    !- Visible Absorptance

Material:NoMass,
  Typical Insulation R-14.97,             !- Name
  Smooth,                                 !- Roughness
  2.63722957411194,                       !- Thermal Resistance {m2-K/W}
  0.9,                                    !- Thermal Absorptance
  0.7,                                    !- Solar Absorptance
  0.7;                                    !- Visible Absorptance

Material:NoMass,
  Typical Insulation R-2.38,              !- Name
  Smooth,                                 !- Roughness
  0.418403710587156,                      !- Thermal Resistance {m2-K/W}
  0.9,                                    !- Thermal Absorptance
  0.7,                                    !- Solar Absorptance
  0.7;                                    !- Visible Absorptance

Material:NoMass,
  Typical Insulation R-30.13,             !- Name
  Smooth,                                 !- Roughness
  5.30668462895534,                       !- Thermal Resistance {m2-K/W}
  0.9,                                    !- Thermal Absorptance
  0.7,                                    !- Solar Absorptance
  0.7;                                    !- Visible Absorptance

Material:NoMass,
  Typical Insulation R-7.23,              !- Name
  Smooth,                                 !- Roughness
  1.27273104517306,                       !- Thermal Resistance {m2-K/W}
  0.9,                                    !- Thermal Absorptance
  0.7,                                    !- Solar Absorptance
  0.7;                                    !- Visible Absorptance

WindowMaterial:Gas,
  000_Air 13mm,                           !- Name
  Air,                                    !- Gas Type
  0.0127;                                 !- Thickness {m}

WindowMaterial:Glazing,
  000_Clear 3mm,                          !- Name
  SpectralAverage,                        !- Optical Data Type
  ,                                       !- Window Glass Spectral Data Set Name
  0.003,                                  !- Thickness {m}
  0.837,                                  !- Solar Transmittance at Normal Incidence
  0.075,                                  !- Front Side Solar Reflectance at Normal Incidence
  0.075,                                  !- Back Side Solar Reflectance at Normal Incidence
  0.898,                                  !- Visible Transmittance at Normal Incidence
  0.081,                                  !- Front Side Visible Reflectance at Normal Incidence
  0.081,                                  !- Back Side Visible Reflectance at Normal Incidence
  0,                                      !- Infrared Transmittance at Normal Incidence
  0.84,                                   !- Front Side Infrared Hemispherical Emissivity
  0.84,                                   !- Back Side Infrared Hemispherical Emissivity
  0.9;                                    !- Conductivity {W/m-K}

WindowMaterial:Glazing,
  Clear 3mm,                              !- Name
  SpectralAverage,                        !- Optical Data Type
  ,                                       !- Window Glass Spectral Data Set Name
  0.00299999999999999,                    !- Thickness {m}
  0.837,                                  !- Solar Transmittance at Normal Incidence
  0.075,                                  !- Front Side Solar Reflectance at Normal Incidence
  0.075,                                  !- Back Side Solar Reflectance at Normal Incidence
  0.898,                                  !- Visible Transmittance at Normal Incidence
  0.081,                                  !- Front Side Visible Reflectance at Normal Incidence
  0.081,                                  !- Back Side Visible Reflectance at Normal Incidence
  0,                                      !- Infrared Transmittance at Normal Incidence
  0.84,                                   !- Front Side Infrared Hemispherical Emissivity
  0.84,                                   !- Back Side Infrared Hemispherical Emissivity
  0.9,                                    !- Conductivity {W/m-K}
  1,                                      !- Dirt Correction Factor for Solar and Visible Transmittance
  No;                                     !- Solar Diffusing

WindowMaterial:Glazing,
  Theoretical Glass [207],                !- Name
  SpectralAverage,                        !- Optical Data Type
  ,                                       !- Window Glass Spectral Data Set Name
  0.003,                                  !- Thickness {m}
  0.3311,                                 !- Solar Transmittance at Normal Incidence
  0.6189,                                 !- Front Side Solar Reflectance at Normal Incidence
  0.6189,                                 !- Back Side Solar Reflectance at Normal Incidence
  0.44,                                   !- Visible Transmittance at Normal Incidence
  0.51,                                   !- Front Side Visible Reflectance at Normal Incidence
  0.51,                                   !- Back Side Visible Reflectance at Normal Incidence
  0,                                      !- Infrared Transmittance at Normal Incidence
  0.9,                                    !- Front Side Infrared Hemispherical Emissivity
  0.9,                                    !- Back Side Infrared Hemispherical Emissivity
  0.0133,                                 !- Conductivity {W/m-K}
  1,                                      !- Dirt Correction Factor for Solar and Visible Transmittance
  No;                                     !- Solar Diffusing

WindowMaterial:SimpleGlazingSystem,
  U 0.36 SHGC 0.36 Simple Glazing,        !- Name
  2.04417480280086,                       !- U-Factor {W/m2-K}
  0.36,                                   !- Solar Heat Gain Coefficient
  0.81;                                   !- Visible Transmittance

WindowMaterial:SimpleGlazingSystem,
  U 0.45 SHGC 0.33 Simple Glazing,        !- Name
  2.55521850350107,                       !- U-Factor {W/m2-K}
  0.33,                                   !- Solar Heat Gain Coefficient
  0.81;                                   !- Visible Transmittance

WindowMaterial:SimpleGlazingSystem,
  U 0.5 SHGC 0.4 Simple Glazing,          !- Name
  2.83913167055674,                       !- U-Factor {W/m2-K}
  0.4,                                    !- Solar Heat Gain Coefficient
  0.81;                                   !- Visible Transmittance

WindowMaterial:SimpleGlazingSystem,
  U 0.63 SHGC 0.33 Simple Glazing,        !- Name
  3.5773059049015,                        !- U-Factor {W/m2-K}
  0.33,                                   !- Solar Heat Gain Coefficient
  0.81;                                   !- Visible Transmittance

Construction,
  000_Exterior Door,                      !- Name
  000_F08 Metal surface,                  !- Layer 1
  000_I01 25mm insulation board;          !- Layer 2

Construction,
  000_Exterior Window,                    !- Name
  000_Clear 3mm,                          !- Layer 1
  000_Air 13mm,                           !- Layer 2
  000_Clear 3mm;                          !- Layer 3

Construction,
  000_ExtSlabCarpet_4in_ClimateZone 1-8,  !- Name
  MAT-CC05 4 HW CONCRETE,                 !- Layer 1
  CP02 CARPET PAD;                        !- Layer 2

Construction,
  000_Interior Ceiling,                   !- Name
  000_M11 100mm lightweight concrete,     !- Layer 1
  000_F05 Ceiling air space resistance,   !- Layer 2
  000_F16 Acoustic tile;                  !- Layer 3

Construction,
  000_Interior Door,                      !- Name
  000_G05 25mm wood;                      !- Layer 1

Construction,
  000_Interior Floor,                     !- Name
  000_F16 Acoustic tile,                  !- Layer 1
  000_F05 Ceiling air space resistance,   !- Layer 2
  000_M11 100mm lightweight concrete;     !- Layer 3

Construction,
  000_Interior Partition,                 !- Name
  000_G05 25mm wood;                      !- Layer 1

Construction,
  000_Interior Wall,                      !- Name
  000_G01a 19mm gypsum board,             !- Layer 1
  000_F04 Wall air space resistance,      !- Layer 2
  000_G01a 19mm gypsum board;             !- Layer 3

Construction,
  000_Interior Window,                    !- Name
  000_Clear 3mm;                          !- Layer 1

Construction,
  ASHRAE_189.1-2009_ExtRoof_IEAD_ClimateZone 2-5, !- Name
  Roof Membrane,                          !- Layer 1
  Roof Insulation [21],                   !- Layer 2
  Metal Decking;                          !- Layer 3

Construction,
  ASHRAE_189.1-2009_ExtWall_SteelFrame_ClimateZone 4-8, !- Name
  MAT-SHEATH,                             !- Layer 1
  Wall Insulation [39],                   !- Layer 2
  1/2IN Gypsum;                           !- Layer 3

Construction,
  ASHRAE_189.1-2009_ExtWindow_ClimateZone 4-5, !- Name
  Theoretical Glass [207];                !- Layer 1

Construction,
  InteriorFurnishings,                    !- Name
  Std Wood 6inch;                         !- Layer 1

Construction,
  Typical IEAD Roof R-31.25,              !- Name
  Roof Membrane,                          !- Layer 1
  Typical Insulation R-30.13,             !- Layer 2
  Metal Roof Surface;                     !- Layer 3

Construction,
  Typical Insulated Basement Mass Wall,   !- Name
  8 in. Concrete Block Basement Wall;     !- Layer 1

Construction,
  Typical Insulated Carpeted 8in Slab Floor, !- Name
  8 in. Normalweight Concrete Floor,      !- Layer 1
  Typical Carpet Pad;                     !- Layer 2

Construction,
  Typical Insulated Exterior Mass Floor R-17.54, !- Name
  Typical Insulation R-14.97,             !- Layer 1
  4 in. Normalweight Concrete Floor,      !- Layer 2
  Typical Carpet Pad;                     !- Layer 3

Construction,
  Typical Insulated Exterior Mass Wall R-9.62, !- Name
  1IN Stucco,                             !- Layer 1
  8IN CONCRETE HW RefBldg,                !- Layer 2
  Typical Insulation R-7.23,              !- Layer 3
  1/2IN Gypsum;                           !- Layer 4

Construction,
  Typical Insulated Metal Door R-2.7,     !- Name
  F08 Metal surface,                      !- Layer 1
  Typical Insulation R-1.85;              !- Layer 2

Construction,
  Typical Interior Ceiling,               !- Name
  CP02 CARPET PAD,                        !- Layer 1
  100mm Normalweight concrete floor;      !- Layer 2

Construction,
  Typical Interior Door,                  !- Name
  G05 25mm wood;                          !- Layer 1

Construction,
  Typical Interior Floor,                 !- Name
  100mm Normalweight concrete floor,      !- Layer 1
  CP02 CARPET PAD;                        !- Layer 2

Construction,
  Typical Interior Partition,             !- Name
  G05 25mm wood;                          !- Layer 1

Construction,
  Typical Interior Wall,                  !- Name
  G01 13mm gypsum board,                  !- Layer 1
  G01 13mm gypsum board;                  !- Layer 2

Construction,
  Typical Interior Window,                !- Name
  Clear 3mm;                              !- Layer 1

Construction,
  Typical Overhead Door R-3.23,           !- Name
  Typical Insulation R-2.38;              !- Layer 1

Construction,
  U 0.36 SHGC 0.36 Simple Glazing,        !- Name
  U 0.36 SHGC 0.36 Simple Glazing;        !- Layer 1

Construction,
  U 0.45 SHGC 0.33 Simple Glazing,        !- Name
  U 0.45 SHGC 0.33 Simple Glazing;        !- Layer 1

Construction,
  U 0.5 SHGC 0.4 Simple Glazing,          !- Name
  U 0.5 SHGC 0.4 Simple Glazing;          !- Layer 1

Construction,
  U 0.63 SHGC 0.33 Simple Glazing,        !- Name
  U 0.63 SHGC 0.33 Simple Glazing;        !- Layer 1

Construction:AirBoundary,
  Air_Wall,                               !- Name
  None,                                   !- Air Exchange Method
  0,                                      !- Simple Mixing Air Changes per Hour {1/hr}
  ;                                       !- Simple Mixing Schedule Name

Construction:FfactorGroundFloor,
  Foundation F 0.9W/m*K Perim 0.0m Area 3600.0m2, !- Name
  0.899982026513123,                      !- F-Factor {W/m-K}
  3600,                                   !- Area {m2}
  0;                                      !- PerimeterExposed {m}

Construction:FfactorGroundFloor,
  Foundation F 0.9W/m*K Perim 100.0m Area 475.0m2, !- Name
  0.899982026513123,                      !- F-Factor {W/m-K}
  475,                                    !- Area {m2}
  100;                                    !- PerimeterExposed {m}

Construction:FfactorGroundFloor,
  Foundation F 0.9W/m*K Perim 50.0m Area 225.0m2, !- Name
  0.899982026513123,                      !- F-Factor {W/m-K}
  225,                                    !- Area {m2}
  50;                                     !- PerimeterExposed {m}

Schedule:Constant,
  Always On Discrete,                     !- Name
  OnOff,                                  !- Schedule Type Limits Name
  1;                                      !- Hourly Value

Schedule:Constant,
  Always Off Discrete,                    !- Name
  OnOff 1,                                !- Schedule Type Limits Name
  0;                                      !- Hourly Value

Schedule:Constant,
  Always On Continuous,                   !- Name
  Fractional 1,                           !- Schedule Type Limits Name
  1;                                      !- Hourly Value

ScheduleTypeLimits,
  ActivityLevel,                          !- Name
  0,                                      !- Lower Limit Value {BasedOnField A3}
  ,                                       !- Upper Limit Value {BasedOnField A3}
  Continuous,                             !- Numeric Type
  activitylevel;                          !- Unit Type

ScheduleTypeLimits,
  Fractional,                             !- Name
  0,                                      !- Lower Limit Value {BasedOnField A3}
  1,                                      !- Upper Limit Value {BasedOnField A3}
  Continuous;                             !- Numeric Type

ScheduleTypeLimits,
  Fractional 1,                           !- Name
  0,                                      !- Lower Limit Value {BasedOnField A3}
  1,                                      !- Upper Limit Value {BasedOnField A3}
  Continuous;                             !- Numeric Type

ScheduleTypeLimits,
  OnOff,                                  !- Name
  0,                                      !- Lower Limit Value {BasedOnField A3}
  1,                                      !- Upper Limit Value {BasedOnField A3}
  Discrete,                               !- Numeric Type
  availability;                           !- Unit Type

ScheduleTypeLimits,
  OnOff 1,                                !- Name
  0,                                      !- Lower Limit Value {BasedOnField A3}
  1,                                      !- Upper Limit Value {BasedOnField A3}
  Discrete,                               !- Numeric Type
  availability;                           !- Unit Type

ScheduleTypeLimits,
  Temperature,                            !- Name
  ,                                       !- Lower Limit Value {BasedOnField A3}
  ,                                       !- Upper Limit Value {BasedOnField A3}
  Continuous,                             !- Numeric Type
  temperature;                            !- Unit Type

Schedule:Constant,
  Infiltration HVAC Off Schedule,         !- Name
  Fractional,                             !- Schedule Type Limits Name
  1;                                      !- Hourly Value

Schedule:Constant,
  Infiltration HVAC On Schedule,          !- Name
  Fractional,                             !- Schedule Type Limits Name
  0;                                      !- Hourly Value

Schedule:Day:Interval,
  Baseline Model Infiltration Schedule All Days, !- Name
  Fractional,                             !- Schedule Type Limits Name
  No,                                     !- Interpolate to Timestep
  06:00,                                  !- Time 1 {hh:mm}
  1,                                      !- Value Until Time 1
  22:00,                                  !- Time 2 {hh:mm}
  0.25,                                   !- Value Until Time 2
  24:00,                                  !- Time 3 {hh:mm}
  1;                                      !- Value Until Time 3

Schedule:Day:Interval,
  Baseline Model Infiltration Schedule Summer Design Day, !- Name
  Fractional,                             !- Schedule Type Limits Name
  No,                                     !- Interpolate to Timestep
  24:00,                                  !- Time 1 {hh:mm}
  1;                                      !- Value Until Time 1

Schedule:Day:Interval,
  Baseline Model Infiltration Schedule Winter Design Day, !- Name
  Fractional,                             !- Schedule Type Limits Name
  No,                                     !- Interpolate to Timestep
  24:00,                                  !- Time 1 {hh:mm}
  1;                                      !- Value Until Time 1

Schedule:Day:Interval,
  Baseline Model People Activity Schedule Default, !- Name
  ActivityLevel,                          !- Schedule Type Limits Name
  No,                                     !- Interpolate to Timestep
  24:00,                                  !- Time 1 {hh:mm}
  120;                                    !- Value Until Time 1

Schedule:Day:Interval,
  Baseline Model People Lights and Equipment Schedule Saturday, !- Name
  Fractional,                             !- Schedule Type Limits Name
  No,                                     !- Interpolate to Timestep
  06:00,                                  !- Time 1 {hh:mm}
  0,                                      !- Value Until Time 1
  08:00,                                  !- Time 2 {hh:mm}
  0.1,                                    !- Value Until Time 2
  14:00,                                  !- Time 3 {hh:mm}
  0.5,                                    !- Value Until Time 3
  17:00,                                  !- Time 4 {hh:mm}
  0.1,                                    !- Value Until Time 4
  24:00,                                  !- Time 5 {hh:mm}
  0;                                      !- Value Until Time 5

Schedule:Day:Interval,
  Baseline Model People Lights and Equipment Schedule Summer Design Day, !- Name
  Fractional,                             !- Schedule Type Limits Name
  No,                                     !- Interpolate to Timestep
  24:00,                                  !- Time 1 {hh:mm}
  1;                                      !- Value Until Time 1

Schedule:Day:Interval,
  Baseline Model People Lights and Equipment Schedule Sunday, !- Name
  Fractional,                             !- Schedule Type Limits Name
  No,                                     !- Interpolate to Timestep
  24:00,                                  !- Time 1 {hh:mm}
  0;                                      !- Value Until Time 1

Schedule:Day:Interval,
  Baseline Model People Lights and Equipment Schedule Week Day, !- Name
  Fractional,                             !- Schedule Type Limits Name
  No,                                     !- Interpolate to Timestep
  06:00,                                  !- Time 1 {hh:mm}
  0,                                      !- Value Until Time 1
  07:00,                                  !- Time 2 {hh:mm}
  0.1,                                    !- Value Until Time 2
  08:00,                                  !- Time 3 {hh:mm}
  0.2,                                    !- Value Until Time 3
  12:00,                                  !- Time 4 {hh:mm}
  0.95,                                   !- Value Until Time 4
  13:00,                                  !- Time 5 {hh:mm}
  0.5,                                    !- Value Until Time 5
  17:00,                                  !- Time 6 {hh:mm}
  0.95,                                   !- Value Until Time 6
  18:00,                                  !- Time 7 {hh:mm}
  0.7,                                    !- Value Until Time 7
  20:00,                                  !- Time 8 {hh:mm}
  0.4,                                    !- Value Until Time 8
  22:00,                                  !- Time 9 {hh:mm}
  0.1,                                    !- Value Until Time 9
  24:00,                                  !- Time 10 {hh:mm}
  0.05;                                   !- Value Until Time 10

Schedule:Day:Interval,
  Baseline Model People Lights and Equipment Schedule Winter Design Day, !- Name
  Fractional,                             !- Schedule Type Limits Name
  No,                                     !- Interpolate to Timestep
  24:00,                                  !- Time 1 {hh:mm}
  0;                                      !- Value Until Time 1

Schedule:Day:Interval,
  Cooling Sch Default,                    !- Name
  Temperature,                            !- Schedule Type Limits Name
  No,                                     !- Interpolate to Timestep
  24:00,                                  !- Time 1 {hh:mm}
  28;                                     !- Value Until Time 1

Schedule:Day:Interval,
  Heating Sch Default,                    !- Name
  Temperature,                            !- Schedule Type Limits Name
  No,                                     !- Interpolate to Timestep
  24:00,                                  !- Time 1 {hh:mm}
  24;                                     !- Value Until Time 1

Schedule:Day:Interval,
  Schedule Day 1,                         !- Name
  Fractional,                             !- Schedule Type Limits Name
  No,                                     !- Interpolate to Timestep
  06:00,                                  !- Time 1 {hh:mm}
  0,                                      !- Value Until Time 1
  24:00,                                  !- Time 2 {hh:mm}
  1;                                      !- Value Until Time 2

Schedule:Day:Interval,
  Schedule Day 2,                         !- Name
  ,                                       !- Schedule Type Limits Name
  No,                                     !- Interpolate to Timestep
  24:00,                                  !- Time 1 {hh:mm}
  0;                                      !- Value Until Time 1

Schedule:Day:Interval,
  Schedule Day 3,                         !- Name
  ,                                       !- Schedule Type Limits Name
  No,                                     !- Interpolate to Timestep
  24:00,                                  !- Time 1 {hh:mm}
  0;                                      !- Value Until Time 1

Schedule:Day:Interval,
  Schedule Day 4,                         !- Name
  ,                                       !- Schedule Type Limits Name
  No,                                     !- Interpolate to Timestep
  24:00,                                  !- Time 1 {hh:mm}
  0;                                      !- Value Until Time 1

Schedule:Day:Interval,
  Schedule Day 5,                         !- Name
  ,                                       !- Schedule Type Limits Name
  No,                                     !- Interpolate to Timestep
  24:00,                                  !- Time 1 {hh:mm}
  0;                                      !- Value Until Time 1

Schedule:Week:Daily,
  Baseline Model Infiltration Schedule Week Rule - Jan1-Dec31, !- Name
  Baseline Model Infiltration Schedule All Days, !- Sunday Schedule:Day Name
  Baseline Model Infiltration Schedule All Days, !- Monday Schedule:Day Name
  Baseline Model Infiltration Schedule All Days, !- Tuesday Schedule:Day Name
  Baseline Model Infiltration Schedule All Days, !- Wednesday Schedule:Day Name
  Baseline Model Infiltration Schedule All Days, !- Thursday Schedule:Day Name
  Baseline Model Infiltration Schedule All Days, !- Friday Schedule:Day Name
  Baseline Model Infiltration Schedule All Days, !- Saturday Schedule:Day Name
  Baseline Model Infiltration Schedule All Days, !- Holiday Schedule:Day Name
  Baseline Model Infiltration Schedule Summer Design Day, !- SummerDesignDay Schedule:Day Name
  Baseline Model Infiltration Schedule Winter Design Day, !- WinterDesignDay Schedule:Day Name
  Baseline Model Infiltration Schedule All Days, !- CustomDay1 Schedule:Day Name
  Baseline Model Infiltration Schedule All Days; !- CustomDay2 Schedule:Day Name

Schedule:Year,
  Baseline Model Infiltration Schedule,   !- Name
  Fractional,                             !- Schedule Type Limits Name
  Baseline Model Infiltration Schedule Week Rule - Jan1-Dec31, !- Schedule:Week Name 1
  1,                                      !- Start Month 1
  1,                                      !- Start Day 1
  12,                                     !- End Month 1
  31;                                     !- End Day 1

Schedule:Week:Daily,
  Baseline Model People Activity Schedule Week Rule - Jan1-Dec31, !- Name
  Baseline Model People Activity Schedule Default, !- Sunday Schedule:Day Name
  Baseline Model People Activity Schedule Default, !- Monday Schedule:Day Name
  Baseline Model People Activity Schedule Default, !- Tuesday Schedule:Day Name
  Baseline Model People Activity Schedule Default, !- Wednesday Schedule:Day Name
  Baseline Model People Activity Schedule Default, !- Thursday Schedule:Day Name
  Baseline Model People Activity Schedule Default, !- Friday Schedule:Day Name
  Baseline Model People Activity Schedule Default, !- Saturday Schedule:Day Name
  Baseline Model People Activity Schedule Default, !- Holiday Schedule:Day Name
  Baseline Model People Activity Schedule Default, !- SummerDesignDay Schedule:Day Name
  Baseline Model People Activity Schedule Default, !- WinterDesignDay Schedule:Day Name
  Baseline Model People Activity Schedule Default, !- CustomDay1 Schedule:Day Name
  Baseline Model People Activity Schedule Default; !- CustomDay2 Schedule:Day Name

Schedule:Year,
  Baseline Model People Activity Schedule, !- Name
  ActivityLevel,                          !- Schedule Type Limits Name
  Baseline Model People Activity Schedule Week Rule - Jan1-Dec31, !- Schedule:Week Name 1
  1,                                      !- Start Month 1
  1,                                      !- Start Day 1
  12,                                     !- End Month 1
  31;                                     !- End Day 1

Schedule:Week:Daily,
  Baseline Model People Lights and Equipment Schedule Week Rule - Jan1-Jan3, !- Name
  Baseline Model People Lights and Equipment Schedule Week Day, !- Sunday Schedule:Day Name
  Baseline Model People Lights and Equipment Schedule Week Day, !- Monday Schedule:Day Name
  Baseline Model People Lights and Equipment Schedule Week Day, !- Tuesday Schedule:Day Name
  Baseline Model People Lights and Equipment Schedule Week Day, !- Wednesday Schedule:Day Name
  Baseline Model People Lights and Equipment Schedule Week Day, !- Thursday Schedule:Day Name
  Baseline Model People Lights and Equipment Schedule Week Day, !- Friday Schedule:Day Name
  Baseline Model People Lights and Equipment Schedule Saturday, !- Saturday Schedule:Day Name
  Baseline Model People Lights and Equipment Schedule Week Day, !- Holiday Schedule:Day Name
  Baseline Model People Lights and Equipment Schedule Summer Design Day, !- SummerDesignDay Schedule:Day Name
  Baseline Model People Lights and Equipment Schedule Winter Design Day, !- WinterDesignDay Schedule:Day Name
  Baseline Model People Lights and Equipment Schedule Week Day, !- CustomDay1 Schedule:Day Name
  Baseline Model People Lights and Equipment Schedule Week Day; !- CustomDay2 Schedule:Day Name

Schedule:Week:Daily,
  Baseline Model People Lights and Equipment Schedule Week Rule - Jan4-Dec31, !- Name
  Baseline Model People Lights and Equipment Schedule Sunday, !- Sunday Schedule:Day Name
  Baseline Model People Lights and Equipment Schedule Week Day, !- Monday Schedule:Day Name
  Baseline Model People Lights and Equipment Schedule Week Day, !- Tuesday Schedule:Day Name
  Baseline Model People Lights and Equipment Schedule Week Day, !- Wednesday Schedule:Day Name
  Baseline Model People Lights and Equipment Schedule Week Day, !- Thursday Schedule:Day Name
  Baseline Model People Lights and Equipment Schedule Week Day, !- Friday Schedule:Day Name
  Baseline Model People Lights and Equipment Schedule Saturday, !- Saturday Schedule:Day Name
  Baseline Model People Lights and Equipment Schedule Week Day, !- Holiday Schedule:Day Name
  Baseline Model People Lights and Equipment Schedule Summer Design Day, !- SummerDesignDay Schedule:Day Name
  Baseline Model People Lights and Equipment Schedule Winter Design Day, !- WinterDesignDay Schedule:Day Name
  Baseline Model People Lights and Equipment Schedule Week Day, !- CustomDay1 Schedule:Day Name
  Baseline Model People Lights and Equipment Schedule Week Day; !- CustomDay2 Schedule:Day Name

Schedule:Year,
  Baseline Model People Lights and Equipment Schedule, !- Name
  Fractional,                             !- Schedule Type Limits Name
  Baseline Model People Lights and Equipment Schedule Week Rule - Jan1-Jan3, !- Schedule:Week Name 1
  1,                                      !- Start Month 1
  1,                                      !- Start Day 1
  1,                                      !- End Month 1
  3,                                      !- End Day 1
  Baseline Model People Lights and Equipment Schedule Week Rule - Jan4-Dec31, !- Schedule:Week Name 2
  1,                                      !- Start Month 2
  4,                                      !- Start Day 2
  12,                                     !- End Month 2
  31;                                     !- End Day 2

Schedule:Week:Daily,
  Cooling Sch Week Rule - Jan1-Dec31,     !- Name
  Cooling Sch Default,                    !- Sunday Schedule:Day Name
  Cooling Sch Default,                    !- Monday Schedule:Day Name
  Cooling Sch Default,                    !- Tuesday Schedule:Day Name
  Cooling Sch Default,                    !- Wednesday Schedule:Day Name
  Cooling Sch Default,                    !- Thursday Schedule:Day Name
  Cooling Sch Default,                    !- Friday Schedule:Day Name
  Cooling Sch Default,                    !- Saturday Schedule:Day Name
  Cooling Sch Default,                    !- Holiday Schedule:Day Name
  Cooling Sch Default,                    !- SummerDesignDay Schedule:Day Name
  Cooling Sch Default,                    !- WinterDesignDay Schedule:Day Name
  Cooling Sch Default,                    !- CustomDay1 Schedule:Day Name
  Cooling Sch Default;                    !- CustomDay2 Schedule:Day Name

Schedule:Year,
  Cooling Sch,                            !- Name
  Temperature,                            !- Schedule Type Limits Name
  Cooling Sch Week Rule - Jan1-Dec31,     !- Schedule:Week Name 1
  1,                                      !- Start Month 1
  1,                                      !- Start Day 1
  12,                                     !- End Month 1
  31;                                     !- End Day 1

Schedule:Week:Daily,
  Heating Sch Week Rule - Jan1-Dec31,     !- Name
  Heating Sch Default,                    !- Sunday Schedule:Day Name
  Heating Sch Default,                    !- Monday Schedule:Day Name
  Heating Sch Default,                    !- Tuesday Schedule:Day Name
  Heating Sch Default,                    !- Wednesday Schedule:Day Name
  Heating Sch Default,                    !- Thursday Schedule:Day Name
  Heating Sch Default,                    !- Friday Schedule:Day Name
  Heating Sch Default,                    !- Saturday Schedule:Day Name
  Heating Sch Default,                    !- Holiday Schedule:Day Name
  Heating Sch Default,                    !- SummerDesignDay Schedule:Day Name
  Heating Sch Default,                    !- WinterDesignDay Schedule:Day Name
  Heating Sch Default,                    !- CustomDay1 Schedule:Day Name
  Heating Sch Default;                    !- CustomDay2 Schedule:Day Name

Schedule:Year,
  Heating Sch,                            !- Name
  Temperature,                            !- Schedule Type Limits Name
  Heating Sch Week Rule - Jan1-Dec31,     !- Schedule:Week Name 1
  1,                                      !- Start Month 1
  1,                                      !- Start Day 1
  12,                                     !- End Month 1
  31;                                     !- End Day 1

Schedule:Week:Daily,
  Schedule Ruleset 1 Week Rule - Jan1-Dec31, !- Name
  Schedule Day 1,                         !- Sunday Schedule:Day Name
  Schedule Day 1,                         !- Monday Schedule:Day Name
  Schedule Day 1,                         !- Tuesday Schedule:Day Name
  Schedule Day 1,                         !- Wednesday Schedule:Day Name
  Schedule Day 1,                         !- Thursday Schedule:Day Name
  Schedule Day 1,                         !- Friday Schedule:Day Name
  Schedule Day 1,                         !- Saturday Schedule:Day Name
  Schedule Day 1,                         !- Holiday Schedule:Day Name
  Schedule Day 1,                         !- SummerDesignDay Schedule:Day Name
  Schedule Day 1,                         !- WinterDesignDay Schedule:Day Name
  Schedule Day 1,                         !- CustomDay1 Schedule:Day Name
  Schedule Day 1;                         !- CustomDay2 Schedule:Day Name

Schedule:Year,
  Schedule Ruleset 1,                     !- Name
  Fractional,                             !- Schedule Type Limits Name
  Schedule Ruleset 1 Week Rule - Jan1-Dec31, !- Schedule:Week Name 1
  1,                                      !- Start Month 1
  1,                                      !- Start Day 1
  12,                                     !- End Month 1
  31;                                     !- End Day 1

OutdoorAir:Node,
  Model Outdoor Air Node;                 !- Name

Site:GroundTemperature:FCfactorMethod,
  14,                                     !- January Ground Temperature {C}
  7.3,                                    !- February Ground Temperature {C}
  3.3,                                    !- March Ground Temperature {C}
  1.2,                                    !- April Ground Temperature {C}
  -0.2,                                   !- May Ground Temperature {C}
  5.6,                                    !- June Ground Temperature {C}
  10.9,                                   !- July Ground Temperature {C}
  16.1,                                   !- August Ground Temperature {C}
  21.7,                                   !- September Ground Temperature {C}
  25,                                     !- October Ground Temperature {C}
  24.8,                                   !- November Ground Temperature {C}
  19.9;                                   !- December Ground Temperature {C}

Exterior:Lights,
  Building Facades 0.15 W/ft^2,           !- Name
  Schedule Ruleset 1,                     !- Schedule Name
  2421.87984375969,                       !- Design Level {W}
  ScheduleNameOnly,                       !- Control Option
  Building Facades;                       !- End-Use Subcategory

Exterior:Lights,
  Main Entries 30.0 W/ft,                 !- Name
  Always On Discrete,                     !- Schedule Name
  1291.66925000517,                       !- Design Level {W}
  AstronomicalClock,                      !- Control Option
  Main Entries;                           !- End-Use Subcategory

Exterior:Lights,
  Other Doors 20.0 W/ft,                  !- Name
  Always On Discrete,                     !- Schedule Name
  1261.53030083838,                       !- Design Level {W}
  AstronomicalClock,                      !- Control Option
  Other Doors;                            !- End-Use Subcategory

Exterior:Lights,
  Parking Areas and Drives 0.04 W/ft^2,   !- Name
  Always On Discrete,                     !- Schedule Name
  3128.01421892658,                       !- Design Level {W}
  AstronomicalClock,                      !- Control Option
  Parking Areas and Drives;               !- End-Use Subcategory

OutputControl:Table:Style,
  HTML;                                   !- Column Separator

Output:VariableDictionary,
  IDF,                                    !- Key Field
  Unsorted;                               !- Sort Option

Output:SQLite,
  SimpleAndTabular;                       !- Option Type

LifeCycleCost:NonrecurringCost,
  Default Cost,                           !- Name
  Construction,                           !- Category
  0,                                      !- Cost
  ServicePeriod;                          !- Start of Costs

