
Version,
  25.2;                                   !- Version Identifier

Timestep,
  6;                                      !- Number of Timesteps per Hour

LifeCycleCost:Parameters,
  Life Cycle Cost Parameters,             !- Name
  EndOfYear,                              !- Discounting Convention
  ConstantDollar,                         !- Inflation Approach
  0.03,                                   !- Real Discount Rate
  ,                                       !- Nominal Discount Rate
  ,                                       !- Inflation
  ,                                       !- Base Date Month
  2011,                                   !- Base Date Year
  ,                                       !- Service Date Month
  2011,                                   !- Service Date Year
  25,                                     !- Length of Study Period in Years
  ,                                       !- Tax rate
  None;                                   !- Depreciation Method

LifeCycleCost:UsePriceEscalation,
  U.S. Avg  Commercial-Electricity,       !- Name
  Electricity,                            !- Resource
  2011,                                   !- Escalation Start Year
  January,                                !- Escalation Start Month
  0.9838,                                 !- Year Escalation 1
  0.9730,                                 !- Year Escalation 2
  0.9632,                                 !- Year Escalation 3
  0.9611,                                 !- Year Escalation 4
  0.9571,                                 !- Year Escalation 5
  0.9553,                                 !- Year Escalation 6
  0.9539,                                 !- Year Escalation 7
  0.9521,                                 !- Year Escalation 8
  0.9546,                                 !- Year Escalation 9
  0.9550,                                 !- Year Escalation 10
  0.9553,                                 !- Year Escalation 11
  0.9564,                                 !- Year Escalation 12
  0.9575,                                 !- Year Escalation 13
  0.9596,                                 !- Year Escalation 14
  0.9618,                                 !- Year Escalation 15
  0.9614,                                 !- Year Escalation 16
  0.9618,                                 !- Year Escalation 17
  0.9618,                                 !- Year Escalation 18
  0.9593,                                 !- Year Escalation 19
  0.9589,                                 !- Year Escalation 20
  0.9607,                                 !- Year Escalation 21
  0.9625,                                 !- Year Escalation 22
  0.9650,                                 !- Year Escalation 23
  0.9708,                                 !- Year Escalation 24
  0.9751,                                 !- Year Escalation 25
  0.9762,                                 !- Year Escalation 26
  0.9766,                                 !- Year Escalation 27
  0.9766,                                 !- Year Escalation 28
  0.9769,                                 !- Year Escalation 29
  0.9773;                                 !- Year Escalation 30

LifeCycleCost:UsePriceEscalation,
  U.S. Avg  Commercial-Distillate Oil,    !- Name
  FuelOilNo1,                             !- Resource
  2011,                                   !- Escalation Start Year
  January,                                !- Escalation Start Month
  0.9714,                                 !- Year Escalation 1
  0.9730,                                 !- Year Escalation 2
  0.9942,                                 !- Year Escalation 3
  1.0164,                                 !- Year Escalation 4
  1.0541,                                 !- Year Escalation 5
  1.0928,                                 !- Year Escalation 6
  1.1267,                                 !- Year Escalation 7
  1.1580,                                 !- Year Escalation 8
  1.1792,                                 !- Year Escalation 9
  1.1967,                                 !- Year Escalation 10
  1.2200,                                 !- Year Escalation 11
  1.2333,                                 !- Year Escalation 12
  1.2566,                                 !- Year Escalation 13
  1.2709,                                 !- Year Escalation 14
  1.2826,                                 !- Year Escalation 15
  1.2985,                                 !- Year Escalation 16
  1.3102,                                 !- Year Escalation 17
  1.3250,                                 !- Year Escalation 18
  1.3261,                                 !- Year Escalation 19
  1.3282,                                 !- Year Escalation 20
  1.3324,                                 !- Year Escalation 21
  1.3356,                                 !- Year Escalation 22
  1.3431,                                 !- Year Escalation 23
  1.3510,                                 !- Year Escalation 24
  1.3568,                                 !- Year Escalation 25
  1.3606,                                 !- Year Escalation 26
  1.3637,                                 !- Year Escalation 27
  1.3674,                                 !- Year Escalation 28
  1.3706,                                 !- Year Escalation 29
  1.3743;                                 !- Year Escalation 30

LifeCycleCost:UsePriceEscalation,
  U.S. Avg  Commercial-Residual Oil,      !- Name
  FuelOilNo2,                             !- Resource
  2011,                                   !- Escalation Start Year
  January,                                !- Escalation Start Month
  0.8469,                                 !- Year Escalation 1
  0.8257,                                 !- Year Escalation 2
  0.8681,                                 !- Year Escalation 3
  0.8988,                                 !- Year Escalation 4
  0.9289,                                 !- Year Escalation 5
  0.9604,                                 !- Year Escalation 6
  0.9897,                                 !- Year Escalation 7
  1.0075,                                 !- Year Escalation 8
  1.0314,                                 !- Year Escalation 9
  1.0554,                                 !- Year Escalation 10
  1.0861,                                 !- Year Escalation 11
  1.1278,                                 !- Year Escalation 12
  1.1497,                                 !- Year Escalation 13
  1.1620,                                 !- Year Escalation 14
  1.1743,                                 !- Year Escalation 15
  1.1852,                                 !- Year Escalation 16
  1.1948,                                 !- Year Escalation 17
  1.2037,                                 !- Year Escalation 18
  1.2071,                                 !- Year Escalation 19
  1.2119,                                 !- Year Escalation 20
  1.2139,                                 !- Year Escalation 21
  1.2194,                                 !- Year Escalation 22
  1.2276,                                 !- Year Escalation 23
  1.2365,                                 !- Year Escalation 24
  1.2420,                                 !- Year Escalation 25
  1.2461,                                 !- Year Escalation 26
  1.2509,                                 !- Year Escalation 27
  1.2550,                                 !- Year Escalation 28
  1.2591,                                 !- Year Escalation 29
  1.2638;                                 !- Year Escalation 30

LifeCycleCost:UsePriceEscalation,
  U.S. Avg  Commercial-Natural gas,       !- Name
  NaturalGas,                             !- Resource
  2011,                                   !- Escalation Start Year
  January,                                !- Escalation Start Month
  0.9823,                                 !- Year Escalation 1
  0.9557,                                 !- Year Escalation 2
  0.9279,                                 !- Year Escalation 3
  0.9257,                                 !- Year Escalation 4
  0.9346,                                 !- Year Escalation 5
  0.9412,                                 !- Year Escalation 6
  0.9512,                                 !- Year Escalation 7
  0.9645,                                 !- Year Escalation 8
  0.9856,                                 !- Year Escalation 9
  1.0067,                                 !- Year Escalation 10
  1.0222,                                 !- Year Escalation 11
  1.0410,                                 !- Year Escalation 12
  1.0610,                                 !- Year Escalation 13
  1.0787,                                 !- Year Escalation 14
  1.0942,                                 !- Year Escalation 15
  1.1098,                                 !- Year Escalation 16
  1.1220,                                 !- Year Escalation 17
  1.1308,                                 !- Year Escalation 18
  1.1386,                                 !- Year Escalation 19
  1.1486,                                 !- Year Escalation 20
  1.1619,                                 !- Year Escalation 21
  1.1763,                                 !- Year Escalation 22
  1.1918,                                 !- Year Escalation 23
  1.2118,                                 !- Year Escalation 24
  1.2284,                                 !- Year Escalation 25
  1.2439,                                 !- Year Escalation 26
  1.2605,                                 !- Year Escalation 27
  1.2772,                                 !- Year Escalation 28
  1.2938,                                 !- Year Escalation 29
  1.3115;                                 !- Year Escalation 30

LifeCycleCost:UsePriceEscalation,
  U.S. Avg  Commercial-Coal,              !- Name
  Coal,                                   !- Resource
  2011,                                   !- Escalation Start Year
  January,                                !- Escalation Start Month
  0.9970,                                 !- Year Escalation 1
  1.0089,                                 !- Year Escalation 2
  1.0089,                                 !- Year Escalation 3
  0.9941,                                 !- Year Escalation 4
  0.9941,                                 !- Year Escalation 5
  1.0000,                                 !- Year Escalation 6
  1.0030,                                 !- Year Escalation 7
  1.0059,                                 !- Year Escalation 8
  1.0089,                                 !- Year Escalation 9
  1.0119,                                 !- Year Escalation 10
  1.0148,                                 !- Year Escalation 11
  1.0178,                                 !- Year Escalation 12
  1.0208,                                 !- Year Escalation 13
  1.0267,                                 !- Year Escalation 14
  1.0297,                                 !- Year Escalation 15
  1.0356,                                 !- Year Escalation 16
  1.0415,                                 !- Year Escalation 17
  1.0534,                                 !- Year Escalation 18
  1.0564,                                 !- Year Escalation 19
  1.0593,                                 !- Year Escalation 20
  1.0653,                                 !- Year Escalation 21
  1.0712,                                 !- Year Escalation 22
  1.0742,                                 !- Year Escalation 23
  1.0801,                                 !- Year Escalation 24
  1.0831,                                 !- Year Escalation 25
  1.0831,                                 !- Year Escalation 26
  1.0861,                                 !- Year Escalation 27
  1.0890,                                 !- Year Escalation 28
  1.0920,                                 !- Year Escalation 29
  1.0950;                                 !- Year Escalation 30

Building,
  90.1-2019|SuperMarket,                  !- Name
  ,                                       !- North Axis {deg}
  ,                                       !- Terrain
  ,                                       !- Loads Convergence Tolerance Value {W}
  ,                                       !- Temperature Convergence Tolerance Value {deltaC}
  ,                                       !- Solar Distribution
  ,                                       !- Maximum Number of Warmup Days
  ;                                       !- Minimum Number of Warmup Days

Zone,
  Zone SuperMarket Bakery A  - Story ground, !- Name
  -0,                                     !- Direction of Relative North {deg}
  9.91450823784054,                       !- X Origin {m}
  -26.3964543073497,                      !- Y Origin {m}
  0,                                      !- Z Origin {m}
  ,                                       !- Type
  1,                                      !- Multiplier
  ,                                       !- Ceiling Height {m}
  ,                                       !- Volume {m3}
  ,                                       !- Floor Area {m2}
  ,                                       !- Zone Inside Convection Algorithm
  ,                                       !- Zone Outside Convection Algorithm
  Yes;                                    !- Part of Total Floor Area

Space,
  SuperMarket Bakery A  - Story ground,   !- Name
  Zone SuperMarket Bakery A  - Story ground, !- Zone Name
  ,                                       !- Ceiling Height {m}
  ,                                       !- Volume {m3}
  ,                                       !- Floor Area {m2}
  SuperMarket Bakery;                     !- Space Type

SpaceList,
  SuperMarket Bakery,                     !- Name
  SuperMarket Bakery C  - Story ground,   !- Space Name 1
  SuperMarket Bakery B  - Story ground,   !- Space Name 2
  SuperMarket Bakery A  - Story ground;   !- Space Name 3

BuildingSurface:Detailed,
  SuperMarket Bakery A  - Story ground Floor 1, !- Name
  Floor,                                  !- Surface Type
  ,                                       !- Construction Name
  Zone SuperMarket Bakery A  - Story ground, !- Zone Name
  SuperMarket Bakery A  - Story ground,   !- Space Name
  Ground,                                 !- Outside Boundary Condition
  ,                                       !- Outside Boundary Condition Object
  NoSun,                                  !- Sun Exposure
  NoWind,                                 !- Wind Exposure
  ,                                       !- View Factor to Ground
  ,                                       !- Number of Vertices
  0, -7.105427357601e-15, 0,              !- X,Y,Z Vertex 1 {m}
  0, 4.57199999999999, 0,                 !- X,Y,Z Vertex 2 {m}
  3.95946814610246, 4.57199999999999, 0,  !- X,Y,Z Vertex 3 {m}
  3.95946814610246, -7.105427357601e-15, 0; !- X,Y,Z Vertex 4 {m}

BuildingSurface:Detailed,
  SuperMarket Bakery A  - Story ground RoofCeiling 1, !- Name
  Roof,                                   !- Surface Type
  ,                                       !- Construction Name
  Zone SuperMarket Bakery A  - Story ground, !- Zone Name
  SuperMarket Bakery A  - Story ground,   !- Space Name
  Outdoors,                               !- Outside Boundary Condition
  ,                                       !- Outside Boundary Condition Object
  SunExposed,                             !- Sun Exposure
  WindExposed,                            !- Wind Exposure
  ,                                       !- View Factor to Ground
  ,                                       !- Number of Vertices
  3.95946814610246, -7.105427357601e-15, 6.096, !- X,Y,Z Vertex 1 {m}
  3.95946814610246, 4.57199999999999, 6.096, !- X,Y,Z Vertex 2 {m}
  0, 4.57199999999999, 6.096,             !- X,Y,Z Vertex 3 {m}
  0, -7.105427357601e-15, 6.096;          !- X,Y,Z Vertex 4 {m}

BuildingSurface:Detailed,
  SuperMarket Bakery A  - Story ground Wall 1, !- Name
  Wall,                                   !- Surface Type
  ,                                       !- Construction Name
  Zone SuperMarket Bakery A  - Story ground, !- Zone Name
  SuperMarket Bakery A  - Story ground,   !- Space Name
  Surface,                                !- Outside Boundary Condition
  SuperMarket Restroom A  - Story ground Wall 4, !- Outside Boundary Condition Object
  NoSun,                                  !- Sun Exposure
  NoWind,                                 !- Wind Exposure
  ,                                       !- View Factor to Ground
  ,                                       !- Number of Vertices
  0, 4.57199999999999, 6.096,             !- X,Y,Z Vertex 1 {m}
  0, 4.57199999999999, 0,                 !- X,Y,Z Vertex 2 {m}
  0, -7.105427357601e-15, 0,              !- X,Y,Z Vertex 3 {m}
  0, -7.105427357601e-15, 6.096;          !- X,Y,Z Vertex 4 {m}

BuildingSurface:Detailed,
  SuperMarket Bakery A  - Story ground Wall 2, !- Name
  Wall,                                   !- Surface Type
  ,                                       !- Construction Name
  Zone SuperMarket Bakery A  - Story ground, !- Zone Name
  SuperMarket Bakery A  - Story ground,   !- Space Name
  Surface,                                !- Outside Boundary Condition
  SuperMarket Bakery B  - Story ground Wall 3, !- Outside Boundary Condition Object
  NoSun,                                  !- Sun Exposure
  NoWind,                                 !- Wind Exposure
  ,                                       !- View Factor to Ground
  ,                                       !- Number of Vertices
  3.95946814610246, 4.57199999999999, 6.096, !- X,Y,Z Vertex 1 {m}
  3.95946814610246, 4.57199999999999, 0,  !- X,Y,Z Vertex 2 {m}
  0, 4.57199999999999, 0,                 !- X,Y,Z Vertex 3 {m}
  0, 4.57199999999999, 6.096;             !- X,Y,Z Vertex 4 {m}

BuildingSurface:Detailed,
  SuperMarket Bakery A  - Story ground Wall 3, !- Name
  Wall,                                   !- Surface Type
  ,                                       !- Construction Name
  Zone SuperMarket Bakery A  - Story ground, !- Zone Name
  SuperMarket Bakery A  - Story ground,   !- Space Name
  Outdoors,                               !- Outside Boundary Condition
  ,                                       !- Outside Boundary Condition Object
  SunExposed,                             !- Sun Exposure
  WindExposed,                            !- Wind Exposure
  ,                                       !- View Factor to Ground
  ,                                       !- Number of Vertices
  3.95946814610246, -7.105427357601e-15, 6.096, !- X,Y,Z Vertex 1 {m}
  0, -7.105427357601e-15, 6.096,          !- X,Y,Z Vertex 2 {m}
  0, -7.105427357601e-15, 0,              !- X,Y,Z Vertex 3 {m}
  3.95946814610246, -7.105427357601e-15, 0; !- X,Y,Z Vertex 4 {m}

FenestrationSurface:Detailed,
  SuperMarket Bakery A  - Story ground Wall 3 FixedWindow 1, !- Name
  Window,                                 !- Surface Type
  ,                                       !- Construction Name
  SuperMarket Bakery A  - Story ground Wall 3, !- Building Surface Name
  ,                                       !- Outside Boundary Condition Object
  ,                                       !- View Factor to Ground
  ,                                       !- Frame and Divider Name
  ,                                       !- Multiplier
  ,                                       !- Number of Vertices
  0.0254, -7.105427357601e-15, 1.44127510364316, !- X,Y,Z Vertex 1 {m}
  0.0254, -7.105427357601e-15, 0.762,     !- X,Y,Z Vertex 2 {m}
  3.93406814610246, -7.105427357601e-15, 0.762, !- X,Y,Z Vertex 3 {m}
  3.93406814610246, -7.105427357601e-15, 1.44127510364316; !- X,Y,Z Vertex 4 {m}

BuildingSurface:Detailed,
  SuperMarket Bakery A  - Story ground Wall 4, !- Name
  Wall,                                   !- Surface Type
  ,                                       !- Construction Name
  Zone SuperMarket Bakery A  - Story ground, !- Zone Name
  SuperMarket Bakery A  - Story ground,   !- Space Name
  Surface,                                !- Outside Boundary Condition
  SuperMarket Deli A  - Story ground Wall 1, !- Outside Boundary Condition Object
  NoSun,                                  !- Sun Exposure
  NoWind,                                 !- Wind Exposure
  ,                                       !- View Factor to Ground
  ,                                       !- Number of Vertices
  3.95946814610246, -7.105427357601e-15, 6.096, !- X,Y,Z Vertex 1 {m}
  3.95946814610246, -7.105427357601e-15, 0, !- X,Y,Z Vertex 2 {m}
  3.95946814610246, 4.57199999999999, 0,  !- X,Y,Z Vertex 3 {m}
  3.95946814610246, 4.57199999999999, 6.096; !- X,Y,Z Vertex 4 {m}

Zone,
  Zone SuperMarket Bakery B  - Story ground, !- Name
  -0,                                     !- Direction of Relative North {deg}
  9.91450823784054,                       !- X Origin {m}
  -21.8244543073497,                      !- Y Origin {m}
  0,                                      !- Z Origin {m}
  ,                                       !- Type
  1,                                      !- Multiplier
  ,                                       !- Ceiling Height {m}
  ,                                       !- Volume {m3}
  ,                                       !- Floor Area {m2}
  ,                                       !- Zone Inside Convection Algorithm
  ,                                       !- Zone Outside Convection Algorithm
  Yes;                                    !- Part of Total Floor Area

Space,
  SuperMarket Bakery B  - Story ground,   !- Name
  Zone SuperMarket Bakery B  - Story ground, !- Zone Name
  ,                                       !- Ceiling Height {m}
  ,                                       !- Volume {m3}
  ,                                       !- Floor Area {m2}
  SuperMarket Bakery;                     !- Space Type

BuildingSurface:Detailed,
  SuperMarket Bakery B  - Story ground Floor 1, !- Name
  Floor,                                  !- Surface Type
  ,                                       !- Construction Name
  Zone SuperMarket Bakery B  - Story ground, !- Zone Name
  SuperMarket Bakery B  - Story ground,   !- Space Name
  Ground,                                 !- Outside Boundary Condition
  ,                                       !- Outside Boundary Condition Object
  NoSun,                                  !- Sun Exposure
  NoWind,                                 !- Wind Exposure
  ,                                       !- View Factor to Ground
  ,                                       !- Number of Vertices
  0, -7.105427357601e-15, 0,              !- X,Y,Z Vertex 1 {m}
  0, 43.6489086146994, 0,                 !- X,Y,Z Vertex 2 {m}
  3.95946814610246, 43.6489086146994, 0,  !- X,Y,Z Vertex 3 {m}
  3.95946814610246, -7.105427357601e-15, 0; !- X,Y,Z Vertex 4 {m}

BuildingSurface:Detailed,
  SuperMarket Bakery B  - Story ground RoofCeiling 1, !- Name
  Roof,                                   !- Surface Type
  ,                                       !- Construction Name
  Zone SuperMarket Bakery B  - Story ground, !- Zone Name
  SuperMarket Bakery B  - Story ground,   !- Space Name
  Outdoors,                               !- Outside Boundary Condition
  ,                                       !- Outside Boundary Condition Object
  SunExposed,                             !- Sun Exposure
  WindExposed,                            !- Wind Exposure
  ,                                       !- View Factor to Ground
  ,                                       !- Number of Vertices
  3.95946814610246, -7.105427357601e-15, 6.096, !- X,Y,Z Vertex 1 {m}
  3.95946814610246, 43.6489086146994, 6.096, !- X,Y,Z Vertex 2 {m}
  0, 43.6489086146994, 6.096,             !- X,Y,Z Vertex 3 {m}
  0, -7.105427357601e-15, 6.096;          !- X,Y,Z Vertex 4 {m}

BuildingSurface:Detailed,
  SuperMarket Bakery B  - Story ground Wall 1, !- Name
  Wall,                                   !- Surface Type
  ,                                       !- Construction Name
  Zone SuperMarket Bakery B  - Story ground, !- Zone Name
  SuperMarket Bakery B  - Story ground,   !- Space Name
  Surface,                                !- Outside Boundary Condition
  SuperMarket Restroom B  - Story ground Wall 4, !- Outside Boundary Condition Object
  NoSun,                                  !- Sun Exposure
  NoWind,                                 !- Wind Exposure
  ,                                       !- View Factor to Ground
  ,                                       !- Number of Vertices
  0, 43.6489086146994, 6.096,             !- X,Y,Z Vertex 1 {m}
  0, 43.6489086146994, 0,                 !- X,Y,Z Vertex 2 {m}
  0, -7.105427357601e-15, 0,              !- X,Y,Z Vertex 3 {m}
  0, -7.105427357601e-15, 6.096;          !- X,Y,Z Vertex 4 {m}

BuildingSurface:Detailed,
  SuperMarket Bakery B  - Story ground Wall 2, !- Name
  Wall,                                   !- Surface Type
  ,                                       !- Construction Name
  Zone SuperMarket Bakery B  - Story ground, !- Zone Name
  SuperMarket Bakery B  - Story ground,   !- Space Name
  Surface,                                !- Outside Boundary Condition
  SuperMarket Bakery C  - Story ground Wall 3, !- Outside Boundary Condition Object
  NoSun,                                  !- Sun Exposure
  NoWind,                                 !- Wind Exposure
  ,                                       !- View Factor to Ground
  ,                                       !- Number of Vertices
  3.95946814610246, 43.6489086146994, 6.096, !- X,Y,Z Vertex 1 {m}
  3.95946814610246, 43.6489086146994, 0,  !- X,Y,Z Vertex 2 {m}
  0, 43.6489086146994, 0,                 !- X,Y,Z Vertex 3 {m}
  0, 43.6489086146994, 6.096;             !- X,Y,Z Vertex 4 {m}

BuildingSurface:Detailed,
  SuperMarket Bakery B  - Story ground Wall 3, !- Name
  Wall,                                   !- Surface Type
  ,                                       !- Construction Name
  Zone SuperMarket Bakery B  - Story ground, !- Zone Name
  SuperMarket Bakery B  - Story ground,   !- Space Name
  Surface,                                !- Outside Boundary Condition
  SuperMarket Bakery A  - Story ground Wall 2, !- Outside Boundary Condition Object
  NoSun,                                  !- Sun Exposure
  NoWind,                                 !- Wind Exposure
  ,                                       !- View Factor to Ground
  ,                                       !- Number of Vertices
  0, -1.06581410364015e-14, 6.096,        !- X,Y,Z Vertex 1 {m}
  0, -1.06581410364015e-14, 0,            !- X,Y,Z Vertex 2 {m}
  3.95946814610246, -1.06581410364015e-14, 0, !- X,Y,Z Vertex 3 {m}
  3.95946814610246, -1.06581410364015e-14, 6.096; !- X,Y,Z Vertex 4 {m}

BuildingSurface:Detailed,
  SuperMarket Bakery B  - Story ground Wall 4, !- Name
  Wall,                                   !- Surface Type
  ,                                       !- Construction Name
  Zone SuperMarket Bakery B  - Story ground, !- Zone Name
  SuperMarket Bakery B  - Story ground,   !- Space Name
  Surface,                                !- Outside Boundary Condition
  SuperMarket Deli B  - Story ground Wall 1, !- Outside Boundary Condition Object
  NoSun,                                  !- Sun Exposure
  NoWind,                                 !- Wind Exposure
  ,                                       !- View Factor to Ground
  ,                                       !- Number of Vertices
  3.95946814610246, -7.105427357601e-15, 6.096, !- X,Y,Z Vertex 1 {m}
  3.95946814610246, -7.105427357601e-15, 0, !- X,Y,Z Vertex 2 {m}
  3.95946814610246, 43.6489086146994, 0,  !- X,Y,Z Vertex 3 {m}
  3.95946814610246, 43.6489086146994, 6.096; !- X,Y,Z Vertex 4 {m}

Zone,
  Zone SuperMarket Bakery C  - Story ground, !- Name
  -0,                                     !- Direction of Relative North {deg}
  9.91450823784054,                       !- X Origin {m}
  21.8244543073497,                       !- Y Origin {m}
  0,                                      !- Z Origin {m}
  ,                                       !- Type
  1,                                      !- Multiplier
  ,                                       !- Ceiling Height {m}
  ,                                       !- Volume {m3}
  ,                                       !- Floor Area {m2}
  ,                                       !- Zone Inside Convection Algorithm
  ,                                       !- Zone Outside Convection Algorithm
  Yes;                                    !- Part of Total Floor Area

Space,
  SuperMarket Bakery C  - Story ground,   !- Name
  Zone SuperMarket Bakery C  - Story ground, !- Zone Name
  ,                                       !- Ceiling Height {m}
  ,                                       !- Volume {m3}
  ,                                       !- Floor Area {m2}
  SuperMarket Bakery;                     !- Space Type

BuildingSurface:Detailed,
  SuperMarket Bakery C  - Story ground Floor 1, !- Name
  Floor,                                  !- Surface Type
  ,                                       !- Construction Name
  Zone SuperMarket Bakery C  - Story ground, !- Zone Name
  SuperMarket Bakery C  - Story ground,   !- Space Name
  Ground,                                 !- Outside Boundary Condition
  ,                                       !- Outside Boundary Condition Object
  NoSun,                                  !- Sun Exposure
  NoWind,                                 !- Wind Exposure
  ,                                       !- View Factor to Ground
  ,                                       !- Number of Vertices
  0, 7.105427357601e-15, 0,               !- X,Y,Z Vertex 1 {m}
  0, 4.57200000000001, 0,                 !- X,Y,Z Vertex 2 {m}
  3.95946814610246, 4.57200000000001, 0,  !- X,Y,Z Vertex 3 {m}
  3.95946814610246, 7.105427357601e-15, 0; !- X,Y,Z Vertex 4 {m}

BuildingSurface:Detailed,
  SuperMarket Bakery C  - Story ground RoofCeiling 1, !- Name
  Roof,                                   !- Surface Type
  ,                                       !- Construction Name
  Zone SuperMarket Bakery C  - Story ground, !- Zone Name
  SuperMarket Bakery C  - Story ground,   !- Space Name
  Outdoors,                               !- Outside Boundary Condition
  ,                                       !- Outside Boundary Condition Object
  SunExposed,                             !- Sun Exposure
  WindExposed,                            !- Wind Exposure
  ,                                       !- View Factor to Ground
  ,                                       !- Number of Vertices
  3.95946814610246, 7.105427357601e-15, 6.096, !- X,Y,Z Vertex 1 {m}
  3.95946814610246, 4.57200000000001, 6.096, !- X,Y,Z Vertex 2 {m}
  0, 4.57200000000001, 6.096,             !- X,Y,Z Vertex 3 {m}
  0, 7.105427357601e-15, 6.096;           !- X,Y,Z Vertex 4 {m}

BuildingSurface:Detailed,
  SuperMarket Bakery C  - Story ground Wall 1, !- Name
  Wall,                                   !- Surface Type
  ,                                       !- Construction Name
  Zone SuperMarket Bakery C  - Story ground, !- Zone Name
  SuperMarket Bakery C  - Story ground,   !- Space Name
  Surface,                                !- Outside Boundary Condition
  SuperMarket Restroom C  - Story ground Wall 4, !- Outside Boundary Condition Object
  NoSun,                                  !- Sun Exposure
  NoWind,                                 !- Wind Exposure
  ,                                       !- View Factor to Ground
  ,                                       !- Number of Vertices
  0, 4.57200000000001, 6.096,             !- X,Y,Z Vertex 1 {m}
  0, 4.57200000000001, 0,                 !- X,Y,Z Vertex 2 {m}
  0, 7.105427357601e-15, 0,               !- X,Y,Z Vertex 3 {m}
  0, 7.105427357601e-15, 6.096;           !- X,Y,Z Vertex 4 {m}

BuildingSurface:Detailed,
  SuperMarket Bakery C  - Story ground Wall 2, !- Name
  Wall,                                   !- Surface Type
  ,                                       !- Construction Name
  Zone SuperMarket Bakery C  - Story ground, !- Zone Name
  SuperMarket Bakery C  - Story ground,   !- Space Name
  Outdoors,                               !- Outside Boundary Condition
  ,                                       !- Outside Boundary Condition Object
  SunExposed,                             !- Sun Exposure
  WindExposed,                            !- Wind Exposure
  ,                                       !- View Factor to Ground
  ,                                       !- Number of Vertices
  0, 4.57200000000001, 6.096,             !- X,Y,Z Vertex 1 {m}
  3.95946814610246, 4.57200000000001, 6.096, !- X,Y,Z Vertex 2 {m}
  3.95946814610246, 4.57200000000001, 0,  !- X,Y,Z Vertex 3 {m}
  0, 4.57200000000001, 0;                 !- X,Y,Z Vertex 4 {m}

FenestrationSurface:Detailed,
  SuperMarket Bakery C  - Story ground Wall 2 FixedWindow 1, !- Name
  Window,                                 !- Surface Type
  ,                                       !- Construction Name
  SuperMarket Bakery C  - Story ground Wall 2, !- Building Surface Name
  ,                                       !- Outside Boundary Condition Object
  ,                                       !- View Factor to Ground
  ,                                       !- Frame and Divider Name
  ,                                       !- Multiplier
  ,                                       !- Number of Vertices
  3.93406814610246, 4.57200000000001, 1.44127510364316, !- X,Y,Z Vertex 1 {m}
  3.93406814610246, 4.57200000000001, 0.762, !- X,Y,Z Vertex 2 {m}
  0.0254000000000003, 4.57200000000001, 0.762, !- X,Y,Z Vertex 3 {m}
  0.0254000000000003, 4.57200000000001, 1.44127510364316; !- X,Y,Z Vertex 4 {m}

BuildingSurface:Detailed,
  SuperMarket Bakery C  - Story ground Wall 3, !- Name
  Wall,                                   !- Surface Type
  ,                                       !- Construction Name
  Zone SuperMarket Bakery C  - Story ground, !- Zone Name
  SuperMarket Bakery C  - Story ground,   !- Space Name
  Surface,                                !- Outside Boundary Condition
  SuperMarket Bakery B  - Story ground Wall 2, !- Outside Boundary Condition Object
  NoSun,                                  !- Sun Exposure
  NoWind,                                 !- Wind Exposure
  ,                                       !- View Factor to Ground
  ,                                       !- Number of Vertices
  0, 7.105427357601e-15, 6.096,           !- X,Y,Z Vertex 1 {m}
  0, 7.105427357601e-15, 0,               !- X,Y,Z Vertex 2 {m}
  3.95946814610246, 7.105427357601e-15, 0, !- X,Y,Z Vertex 3 {m}
  3.95946814610246, 7.105427357601e-15, 6.096; !- X,Y,Z Vertex 4 {m}

BuildingSurface:Detailed,
  SuperMarket Bakery C  - Story ground Wall 4, !- Name
  Wall,                                   !- Surface Type
  ,                                       !- Construction Name
  Zone SuperMarket Bakery C  - Story ground, !- Zone Name
  SuperMarket Bakery C  - Story ground,   !- Space Name
  Surface,                                !- Outside Boundary Condition
  SuperMarket Deli C  - Story ground Wall 1, !- Outside Boundary Condition Object
  NoSun,                                  !- Sun Exposure
  NoWind,                                 !- Wind Exposure
  ,                                       !- View Factor to Ground
  ,                                       !- Number of Vertices
  3.95946814610246, 7.105427357601e-15, 6.096, !- X,Y,Z Vertex 1 {m}
  3.95946814610246, 7.105427357601e-15, 0, !- X,Y,Z Vertex 2 {m}
  3.95946814610246, 4.57200000000001, 0,  !- X,Y,Z Vertex 3 {m}
  3.95946814610246, 4.57200000000001, 6.096; !- X,Y,Z Vertex 4 {m}

Zone,
  Zone SuperMarket Corridor A  - Story ground, !- Name
  -0,                                     !- Direction of Relative North {deg}
  6.73901478466637,                       !- X Origin {m}
  -26.3964543073497,                      !- Y Origin {m}
  0,                                      !- Z Origin {m}
  ,                                       !- Type
  1,                                      !- Multiplier
  ,                                       !- Ceiling Height {m}
  ,                                       !- Volume {m3}
  ,                                       !- Floor Area {m2}
  ,                                       !- Zone Inside Convection Algorithm
  ,                                       !- Zone Outside Convection Algorithm
  Yes;                                    !- Part of Total Floor Area

Space,
  SuperMarket Corridor A  - Story ground, !- Name
  Zone SuperMarket Corridor A  - Story ground, !- Zone Name
  ,                                       !- Ceiling Height {m}
  ,                                       !- Volume {m3}
  ,                                       !- Floor Area {m2}
  SuperMarket Corridor;                   !- Space Type

SpaceList,
  SuperMarket Corridor,                   !- Name
  SuperMarket Corridor B  - Story ground, !- Space Name 1
  SuperMarket Corridor C  - Story ground, !- Space Name 2
  SuperMarket Corridor A  - Story ground; !- Space Name 3

BuildingSurface:Detailed,
  SuperMarket Corridor A  - Story ground Floor 1, !- Name
  Floor,                                  !- Surface Type
  ,                                       !- Construction Name
  Zone SuperMarket Corridor A  - Story ground, !- Zone Name
  SuperMarket Corridor A  - Story ground, !- Space Name
  Ground,                                 !- Outside Boundary Condition
  ,                                       !- Outside Boundary Condition Object
  NoSun,                                  !- Sun Exposure
  NoWind,                                 !- Wind Exposure
  ,                                       !- View Factor to Ground
  ,                                       !- Number of Vertices
  -3.5527136788005e-15, -7.105427357601e-15, 0, !- X,Y,Z Vertex 1 {m}
  -3.5527136788005e-15, 4.57199999999999, 0, !- X,Y,Z Vertex 2 {m}
  0.934434482480176, 4.57199999999999, 0, !- X,Y,Z Vertex 3 {m}
  0.934434482480176, -7.105427357601e-15, 0; !- X,Y,Z Vertex 4 {m}

BuildingSurface:Detailed,
  SuperMarket Corridor A  - Story ground RoofCeiling 1, !- Name
  Roof,                                   !- Surface Type
  ,                                       !- Construction Name
  Zone SuperMarket Corridor A  - Story ground, !- Zone Name
  SuperMarket Corridor A  - Story ground, !- Space Name
  Outdoors,                               !- Outside Boundary Condition
  ,                                       !- Outside Boundary Condition Object
  SunExposed,                             !- Sun Exposure
  WindExposed,                            !- Wind Exposure
  ,                                       !- View Factor to Ground
  ,                                       !- Number of Vertices
  0.934434482480176, -7.105427357601e-15, 6.096, !- X,Y,Z Vertex 1 {m}
  0.934434482480176, 4.57199999999999, 6.096, !- X,Y,Z Vertex 2 {m}
  -3.5527136788005e-15, 4.57199999999999, 6.096, !- X,Y,Z Vertex 3 {m}
  -3.5527136788005e-15, -7.105427357601e-15, 6.096; !- X,Y,Z Vertex 4 {m}

BuildingSurface:Detailed,
  SuperMarket Corridor A  - Story ground Wall 1, !- Name
  Wall,                                   !- Surface Type
  ,                                       !- Construction Name
  Zone SuperMarket Corridor A  - Story ground, !- Zone Name
  SuperMarket Corridor A  - Story ground, !- Space Name
  Surface,                                !- Outside Boundary Condition
  SuperMarket Meeting A  - Story ground Wall 4, !- Outside Boundary Condition Object
  NoSun,                                  !- Sun Exposure
  NoWind,                                 !- Wind Exposure
  ,                                       !- View Factor to Ground
  ,                                       !- Number of Vertices
  8.88178419700125e-16, 4.57199999999999, 6.096, !- X,Y,Z Vertex 1 {m}
  8.88178419700125e-16, 4.57199999999999, 0, !- X,Y,Z Vertex 2 {m}
  8.88178419700125e-16, -7.105427357601e-15, 0, !- X,Y,Z Vertex 3 {m}
  8.88178419700125e-16, -7.105427357601e-15, 6.096; !- X,Y,Z Vertex 4 {m}

BuildingSurface:Detailed,
  SuperMarket Corridor A  - Story ground Wall 2, !- Name
  Wall,                                   !- Surface Type
  ,                                       !- Construction Name
  Zone SuperMarket Corridor A  - Story ground, !- Zone Name
  SuperMarket Corridor A  - Story ground, !- Space Name
  Surface,                                !- Outside Boundary Condition
  SuperMarket Corridor B  - Story ground Wall 3, !- Outside Boundary Condition Object
  NoSun,                                  !- Sun Exposure
  NoWind,                                 !- Wind Exposure
  ,                                       !- View Factor to Ground
  ,                                       !- Number of Vertices
  0.934434482480176, 4.57199999999999, 6.096, !- X,Y,Z Vertex 1 {m}
  0.934434482480176, 4.57199999999999, 0, !- X,Y,Z Vertex 2 {m}
  -3.5527136788005e-15, 4.57199999999999, 0, !- X,Y,Z Vertex 3 {m}
  -3.5527136788005e-15, 4.57199999999999, 6.096; !- X,Y,Z Vertex 4 {m}

BuildingSurface:Detailed,
  SuperMarket Corridor A  - Story ground Wall 3, !- Name
  Wall,                                   !- Surface Type
  ,                                       !- Construction Name
  Zone SuperMarket Corridor A  - Story ground, !- Zone Name
  SuperMarket Corridor A  - Story ground, !- Space Name
  Outdoors,                               !- Outside Boundary Condition
  ,                                       !- Outside Boundary Condition Object
  SunExposed,                             !- Sun Exposure
  WindExposed,                            !- Wind Exposure
  ,                                       !- View Factor to Ground
  ,                                       !- Number of Vertices
  0.934434482480176, -7.105427357601e-15, 6.096, !- X,Y,Z Vertex 1 {m}
  -3.5527136788005e-15, -7.105427357601e-15, 6.096, !- X,Y,Z Vertex 2 {m}
  -3.5527136788005e-15, -7.105427357601e-15, 0, !- X,Y,Z Vertex 3 {m}
  0.934434482480176, -7.105427357601e-15, 0; !- X,Y,Z Vertex 4 {m}

FenestrationSurface:Detailed,
  SuperMarket Corridor A  - Story ground Wall 3 FixedWindow 1, !- Name
  Window,                                 !- Surface Type
  ,                                       !- Construction Name
  SuperMarket Corridor A  - Story ground Wall 3, !- Building Surface Name
  ,                                       !- Outside Boundary Condition Object
  ,                                       !- View Factor to Ground
  ,                                       !- Frame and Divider Name
  ,                                       !- Multiplier
  ,                                       !- Number of Vertices
  0.0253999999999964, -7.105427357601e-15, 1.47111038330373, !- X,Y,Z Vertex 1 {m}
  0.0253999999999964, -7.105427357601e-15, 0.762, !- X,Y,Z Vertex 2 {m}
  0.909034482480176, -7.105427357601e-15, 0.762, !- X,Y,Z Vertex 3 {m}
  0.909034482480176, -7.105427357601e-15, 1.47111038330373; !- X,Y,Z Vertex 4 {m}

BuildingSurface:Detailed,
  SuperMarket Corridor A  - Story ground Wall 4, !- Name
  Wall,                                   !- Surface Type
  ,                                       !- Construction Name
  Zone SuperMarket Corridor A  - Story ground, !- Zone Name
  SuperMarket Corridor A  - Story ground, !- Space Name
  Surface,                                !- Outside Boundary Condition
  SuperMarket Elec/MechRoom A  - Story ground Wall 1, !- Outside Boundary Condition Object
  NoSun,                                  !- Sun Exposure
  NoWind,                                 !- Wind Exposure
  ,                                       !- View Factor to Ground
  ,                                       !- Number of Vertices
  0.934434482480176, -7.105427357601e-15, 6.096, !- X,Y,Z Vertex 1 {m}
  0.934434482480176, -7.105427357601e-15, 0, !- X,Y,Z Vertex 2 {m}
  0.934434482480176, 4.57199999999999, 0, !- X,Y,Z Vertex 3 {m}
  0.934434482480176, 4.57199999999999, 6.096; !- X,Y,Z Vertex 4 {m}

Zone,
  Zone SuperMarket Corridor B  - Story ground, !- Name
  -0,                                     !- Direction of Relative North {deg}
  6.73901478466637,                       !- X Origin {m}
  -21.8244543073497,                      !- Y Origin {m}
  0,                                      !- Z Origin {m}
  ,                                       !- Type
  1,                                      !- Multiplier
  ,                                       !- Ceiling Height {m}
  ,                                       !- Volume {m3}
  ,                                       !- Floor Area {m2}
  ,                                       !- Zone Inside Convection Algorithm
  ,                                       !- Zone Outside Convection Algorithm
  Yes;                                    !- Part of Total Floor Area

Space,
  SuperMarket Corridor B  - Story ground, !- Name
  Zone SuperMarket Corridor B  - Story ground, !- Zone Name
  ,                                       !- Ceiling Height {m}
  ,                                       !- Volume {m3}
  ,                                       !- Floor Area {m2}
  SuperMarket Corridor;                   !- Space Type

BuildingSurface:Detailed,
  SuperMarket Corridor B  - Story ground Floor 1, !- Name
  Floor,                                  !- Surface Type
  ,                                       !- Construction Name
  Zone SuperMarket Corridor B  - Story ground, !- Zone Name
  SuperMarket Corridor B  - Story ground, !- Space Name
  Ground,                                 !- Outside Boundary Condition
  ,                                       !- Outside Boundary Condition Object
  NoSun,                                  !- Sun Exposure
  NoWind,                                 !- Wind Exposure
  ,                                       !- View Factor to Ground
  ,                                       !- Number of Vertices
  -3.5527136788005e-15, -7.105427357601e-15, 0, !- X,Y,Z Vertex 1 {m}
  -3.5527136788005e-15, 43.6489086146994, 0, !- X,Y,Z Vertex 2 {m}
  0.934434482480176, 43.6489086146994, 0, !- X,Y,Z Vertex 3 {m}
  0.934434482480176, -7.105427357601e-15, 0; !- X,Y,Z Vertex 4 {m}

BuildingSurface:Detailed,
  SuperMarket Corridor B  - Story ground RoofCeiling 1, !- Name
  Roof,                                   !- Surface Type
  ,                                       !- Construction Name
  Zone SuperMarket Corridor B  - Story ground, !- Zone Name
  SuperMarket Corridor B  - Story ground, !- Space Name
  Outdoors,                               !- Outside Boundary Condition
  ,                                       !- Outside Boundary Condition Object
  SunExposed,                             !- Sun Exposure
  WindExposed,                            !- Wind Exposure
  ,                                       !- View Factor to Ground
  ,                                       !- Number of Vertices
  0.934434482480176, -7.105427357601e-15, 6.096, !- X,Y,Z Vertex 1 {m}
  0.934434482480176, 43.6489086146994, 6.096, !- X,Y,Z Vertex 2 {m}
  -3.5527136788005e-15, 43.6489086146994, 6.096, !- X,Y,Z Vertex 3 {m}
  -3.5527136788005e-15, -7.105427357601e-15, 6.096; !- X,Y,Z Vertex 4 {m}

BuildingSurface:Detailed,
  SuperMarket Corridor B  - Story ground Wall 1, !- Name
  Wall,                                   !- Surface Type
  ,                                       !- Construction Name
  Zone SuperMarket Corridor B  - Story ground, !- Zone Name
  SuperMarket Corridor B  - Story ground, !- Space Name
  Surface,                                !- Outside Boundary Condition
  SuperMarket Meeting B  - Story ground Wall 4, !- Outside Boundary Condition Object
  NoSun,                                  !- Sun Exposure
  NoWind,                                 !- Wind Exposure
  ,                                       !- View Factor to Ground
  ,                                       !- Number of Vertices
  8.88178419700125e-16, 43.6489086146994, 6.096, !- X,Y,Z Vertex 1 {m}
  8.88178419700125e-16, 43.6489086146994, 0, !- X,Y,Z Vertex 2 {m}
  8.88178419700125e-16, -7.105427357601e-15, 0, !- X,Y,Z Vertex 3 {m}
  8.88178419700125e-16, -7.105427357601e-15, 6.096; !- X,Y,Z Vertex 4 {m}

BuildingSurface:Detailed,
  SuperMarket Corridor B  - Story ground Wall 2, !- Name
  Wall,                                   !- Surface Type
  ,                                       !- Construction Name
  Zone SuperMarket Corridor B  - Story ground, !- Zone Name
  SuperMarket Corridor B  - Story ground, !- Space Name
  Surface,                                !- Outside Boundary Condition
  SuperMarket Corridor C  - Story ground Wall 3, !- Outside Boundary Condition Object
  NoSun,                                  !- Sun Exposure
  NoWind,                                 !- Wind Exposure
  ,                                       !- View Factor to Ground
  ,                                       !- Number of Vertices
  0.934434482480176, 43.6489086146994, 6.096, !- X,Y,Z Vertex 1 {m}
  0.934434482480176, 43.6489086146994, 0, !- X,Y,Z Vertex 2 {m}
  -3.5527136788005e-15, 43.6489086146994, 0, !- X,Y,Z Vertex 3 {m}
  -3.5527136788005e-15, 43.6489086146994, 6.096; !- X,Y,Z Vertex 4 {m}

BuildingSurface:Detailed,
  SuperMarket Corridor B  - Story ground Wall 3, !- Name
  Wall,                                   !- Surface Type
  ,                                       !- Construction Name
  Zone SuperMarket Corridor B  - Story ground, !- Zone Name
  SuperMarket Corridor B  - Story ground, !- Space Name
  Surface,                                !- Outside Boundary Condition
  SuperMarket Corridor A  - Story ground Wall 2, !- Outside Boundary Condition Object
  NoSun,                                  !- Sun Exposure
  NoWind,                                 !- Wind Exposure
  ,                                       !- View Factor to Ground
  ,                                       !- Number of Vertices
  -3.5527136788005e-15, -1.06581410364015e-14, 6.096, !- X,Y,Z Vertex 1 {m}
  -3.5527136788005e-15, -1.06581410364015e-14, 0, !- X,Y,Z Vertex 2 {m}
  0.934434482480176, -1.06581410364015e-14, 0, !- X,Y,Z Vertex 3 {m}
  0.934434482480176, -1.06581410364015e-14, 6.096; !- X,Y,Z Vertex 4 {m}

BuildingSurface:Detailed,
  SuperMarket Corridor B  - Story ground Wall 4, !- Name
  Wall,                                   !- Surface Type
  ,                                       !- Construction Name
  Zone SuperMarket Corridor B  - Story ground, !- Zone Name
  SuperMarket Corridor B  - Story ground, !- Space Name
  Surface,                                !- Outside Boundary Condition
  SuperMarket Elec/MechRoom B  - Story ground Wall 1, !- Outside Boundary Condition Object
  NoSun,                                  !- Sun Exposure
  NoWind,                                 !- Wind Exposure
  ,                                       !- View Factor to Ground
  ,                                       !- Number of Vertices
  0.934434482480176, -7.105427357601e-15, 6.096, !- X,Y,Z Vertex 1 {m}
  0.934434482480176, -7.105427357601e-15, 0, !- X,Y,Z Vertex 2 {m}
  0.934434482480176, 43.6489086146994, 0, !- X,Y,Z Vertex 3 {m}
  0.934434482480176, 43.6489086146994, 6.096; !- X,Y,Z Vertex 4 {m}

Zone,
  Zone SuperMarket Corridor C  - Story ground, !- Name
  -0,                                     !- Direction of Relative North {deg}
  6.73901478466637,                       !- X Origin {m}
  21.8244543073497,                       !- Y Origin {m}
  0,                                      !- Z Origin {m}
  ,                                       !- Type
  1,                                      !- Multiplier
  ,                                       !- Ceiling Height {m}
  ,                                       !- Volume {m3}
  ,                                       !- Floor Area {m2}
  ,                                       !- Zone Inside Convection Algorithm
  ,                                       !- Zone Outside Convection Algorithm
  Yes;                                    !- Part of Total Floor Area

Space,
  SuperMarket Corridor C  - Story ground, !- Name
  Zone SuperMarket Corridor C  - Story ground, !- Zone Name
  ,                                       !- Ceiling Height {m}
  ,                                       !- Volume {m3}
  ,                                       !- Floor Area {m2}
  SuperMarket Corridor;                   !- Space Type

BuildingSurface:Detailed,
  SuperMarket Corridor C  - Story ground Floor 1, !- Name
  Floor,                                  !- Surface Type
  ,                                       !- Construction Name
  Zone SuperMarket Corridor C  - Story ground, !- Zone Name
  SuperMarket Corridor C  - Story ground, !- Space Name
  Ground,                                 !- Outside Boundary Condition
  ,                                       !- Outside Boundary Condition Object
  NoSun,                                  !- Sun Exposure
  NoWind,                                 !- Wind Exposure
  ,                                       !- View Factor to Ground
  ,                                       !- Number of Vertices
  -3.5527136788005e-15, 7.105427357601e-15, 0, !- X,Y,Z Vertex 1 {m}
  -3.5527136788005e-15, 4.57200000000001, 0, !- X,Y,Z Vertex 2 {m}
  0.934434482480176, 4.57200000000001, 0, !- X,Y,Z Vertex 3 {m}
  0.934434482480176, 7.105427357601e-15, 0; !- X,Y,Z Vertex 4 {m}

BuildingSurface:Detailed,
  SuperMarket Corridor C  - Story ground RoofCeiling 1, !- Name
  Roof,                                   !- Surface Type
  ,                                       !- Construction Name
  Zone SuperMarket Corridor C  - Story ground, !- Zone Name
  SuperMarket Corridor C  - Story ground, !- Space Name
  Outdoors,                               !- Outside Boundary Condition
  ,                                       !- Outside Boundary Condition Object
  SunExposed,                             !- Sun Exposure
  WindExposed,                            !- Wind Exposure
  ,                                       !- View Factor to Ground
  ,                                       !- Number of Vertices
  0.934434482480176, 7.105427357601e-15, 6.096, !- X,Y,Z Vertex 1 {m}
  0.934434482480176, 4.57200000000001, 6.096, !- X,Y,Z Vertex 2 {m}
  -3.5527136788005e-15, 4.57200000000001, 6.096, !- X,Y,Z Vertex 3 {m}
  -3.5527136788005e-15, 7.105427357601e-15, 6.096; !- X,Y,Z Vertex 4 {m}

BuildingSurface:Detailed,
  SuperMarket Corridor C  - Story ground Wall 1, !- Name
  Wall,                                   !- Surface Type
  ,                                       !- Construction Name
  Zone SuperMarket Corridor C  - Story ground, !- Zone Name
  SuperMarket Corridor C  - Story ground, !- Space Name
  Surface,                                !- Outside Boundary Condition
  SuperMarket Meeting C  - Story ground Wall 4, !- Outside Boundary Condition Object
  NoSun,                                  !- Sun Exposure
  NoWind,                                 !- Wind Exposure
  ,                                       !- View Factor to Ground
  ,                                       !- Number of Vertices
  8.88178419700125e-16, 4.57200000000001, 6.096, !- X,Y,Z Vertex 1 {m}
  8.88178419700125e-16, 4.57200000000001, 0, !- X,Y,Z Vertex 2 {m}
  8.88178419700125e-16, 7.105427357601e-15, 0, !- X,Y,Z Vertex 3 {m}
  8.88178419700125e-16, 7.105427357601e-15, 6.096; !- X,Y,Z Vertex 4 {m}

BuildingSurface:Detailed,
  SuperMarket Corridor C  - Story ground Wall 2, !- Name
  Wall,                                   !- Surface Type
  ,                                       !- Construction Name
  Zone SuperMarket Corridor C  - Story ground, !- Zone Name
  SuperMarket Corridor C  - Story ground, !- Space Name
  Outdoors,                               !- Outside Boundary Condition
  ,                                       !- Outside Boundary Condition Object
  SunExposed,                             !- Sun Exposure
  WindExposed,                            !- Wind Exposure
  ,                                       !- View Factor to Ground
  ,                                       !- Number of Vertices
  -3.5527136788005e-15, 4.57200000000001, 6.096, !- X,Y,Z Vertex 1 {m}
  0.934434482480176, 4.57200000000001, 6.096, !- X,Y,Z Vertex 2 {m}
  0.934434482480176, 4.57200000000001, 0, !- X,Y,Z Vertex 3 {m}
  -3.5527136788005e-15, 4.57200000000001, 0; !- X,Y,Z Vertex 4 {m}

FenestrationSurface:Detailed,
  SuperMarket Corridor C  - Story ground Wall 2 FixedWindow 1, !- Name
  Window,                                 !- Surface Type
  ,                                       !- Construction Name
  SuperMarket Corridor C  - Story ground Wall 2, !- Building Surface Name
  ,                                       !- Outside Boundary Condition Object
  ,                                       !- View Factor to Ground
  ,                                       !- Frame and Divider Name
  ,                                       !- Multiplier
  ,                                       !- Number of Vertices
  0.909034482480176, 4.57200000000001, 1.47111038330373, !- X,Y,Z Vertex 1 {m}
  0.909034482480176, 4.57200000000001, 0.762, !- X,Y,Z Vertex 2 {m}
  0.0253999999999964, 4.57200000000001, 0.762, !- X,Y,Z Vertex 3 {m}
  0.0253999999999964, 4.57200000000001, 1.47111038330373; !- X,Y,Z Vertex 4 {m}

BuildingSurface:Detailed,
  SuperMarket Corridor C  - Story ground Wall 3, !- Name
  Wall,                                   !- Surface Type
  ,                                       !- Construction Name
  Zone SuperMarket Corridor C  - Story ground, !- Zone Name
  SuperMarket Corridor C  - Story ground, !- Space Name
  Surface,                                !- Outside Boundary Condition
  SuperMarket Corridor B  - Story ground Wall 2, !- Outside Boundary Condition Object
  NoSun,                                  !- Sun Exposure
  NoWind,                                 !- Wind Exposure
  ,                                       !- View Factor to Ground
  ,                                       !- Number of Vertices
  -3.5527136788005e-15, 7.105427357601e-15, 6.096, !- X,Y,Z Vertex 1 {m}
  -3.5527136788005e-15, 7.105427357601e-15, 0, !- X,Y,Z Vertex 2 {m}
  0.934434482480176, 7.105427357601e-15, 0, !- X,Y,Z Vertex 3 {m}
  0.934434482480176, 7.105427357601e-15, 6.096; !- X,Y,Z Vertex 4 {m}

BuildingSurface:Detailed,
  SuperMarket Corridor C  - Story ground Wall 4, !- Name
  Wall,                                   !- Surface Type
  ,                                       !- Construction Name
  Zone SuperMarket Corridor C  - Story ground, !- Zone Name
  SuperMarket Corridor C  - Story ground, !- Space Name
  Surface,                                !- Outside Boundary Condition
  SuperMarket Elec/MechRoom C  - Story ground Wall 1, !- Outside Boundary Condition Object
  NoSun,                                  !- Sun Exposure
  NoWind,                                 !- Wind Exposure
  ,                                       !- View Factor to Ground
  ,                                       !- Number of Vertices
  0.934434482480176, 7.105427357601e-15, 6.096, !- X,Y,Z Vertex 1 {m}
  0.934434482480176, 7.105427357601e-15, 0, !- X,Y,Z Vertex 2 {m}
  0.934434482480176, 4.57200000000001, 0, !- X,Y,Z Vertex 3 {m}
  0.934434482480176, 4.57200000000001, 6.096; !- X,Y,Z Vertex 4 {m}

Zone,
  Zone SuperMarket Deli A  - Story ground, !- Name
  -0,                                     !- Direction of Relative North {deg}
  13.873976383943,                        !- X Origin {m}
  -26.3964543073497,                      !- Y Origin {m}
  0,                                      !- Z Origin {m}
  ,                                       !- Type
  1,                                      !- Multiplier
  ,                                       !- Ceiling Height {m}
  ,                                       !- Volume {m3}
  ,                                       !- Floor Area {m2}
  ,                                       !- Zone Inside Convection Algorithm
  ,                                       !- Zone Outside Convection Algorithm
  Yes;                                    !- Part of Total Floor Area

Space,
  SuperMarket Deli A  - Story ground,     !- Name
  Zone SuperMarket Deli A  - Story ground, !- Zone Name
  ,                                       !- Ceiling Height {m}
  ,                                       !- Volume {m3}
  ,                                       !- Floor Area {m2}
  SuperMarket Deli;                       !- Space Type

SpaceList,
  SuperMarket Deli,                       !- Name
  SuperMarket Deli A  - Story ground,     !- Space Name 1
  SuperMarket Deli B  - Story ground,     !- Space Name 2
  SuperMarket Deli C  - Story ground;     !- Space Name 3

BuildingSurface:Detailed,
  SuperMarket Deli A  - Story ground Floor 1, !- Name
  Floor,                                  !- Surface Type
  ,                                       !- Construction Name
  Zone SuperMarket Deli A  - Story ground, !- Zone Name
  SuperMarket Deli A  - Story ground,     !- Space Name
  Ground,                                 !- Outside Boundary Condition
  ,                                       !- Outside Boundary Condition Object
  NoSun,                                  !- Sun Exposure
  NoWind,                                 !- Wind Exposure
  ,                                       !- View Factor to Ground
  ,                                       !- Number of Vertices
  7.105427357601e-15, -7.105427357601e-15, 0, !- X,Y,Z Vertex 1 {m}
  7.105427357601e-15, 4.57199999999999, 0, !- X,Y,Z Vertex 2 {m}
  4.25246878891401, 4.57199999999999, 0,  !- X,Y,Z Vertex 3 {m}
  4.25246878891401, -7.105427357601e-15, 0; !- X,Y,Z Vertex 4 {m}

BuildingSurface:Detailed,
  SuperMarket Deli A  - Story ground RoofCeiling 1, !- Name
  Roof,                                   !- Surface Type
  ,                                       !- Construction Name
  Zone SuperMarket Deli A  - Story ground, !- Zone Name
  SuperMarket Deli A  - Story ground,     !- Space Name
  Outdoors,                               !- Outside Boundary Condition
  ,                                       !- Outside Boundary Condition Object
  SunExposed,                             !- Sun Exposure
  WindExposed,                            !- Wind Exposure
  ,                                       !- View Factor to Ground
  ,                                       !- Number of Vertices
  4.25246878891401, -7.105427357601e-15, 6.096, !- X,Y,Z Vertex 1 {m}
  4.25246878891401, 4.57199999999999, 6.096, !- X,Y,Z Vertex 2 {m}
  7.105427357601e-15, 4.57199999999999, 6.096, !- X,Y,Z Vertex 3 {m}
  7.105427357601e-15, -7.105427357601e-15, 6.096; !- X,Y,Z Vertex 4 {m}

BuildingSurface:Detailed,
  SuperMarket Deli A  - Story ground Wall 1, !- Name
  Wall,                                   !- Surface Type
  ,                                       !- Construction Name
  Zone SuperMarket Deli A  - Story ground, !- Zone Name
  SuperMarket Deli A  - Story ground,     !- Space Name
  Surface,                                !- Outside Boundary Condition
  SuperMarket Bakery A  - Story ground Wall 4, !- Outside Boundary Condition Object
  NoSun,                                  !- Sun Exposure
  NoWind,                                 !- Wind Exposure
  ,                                       !- View Factor to Ground
  ,                                       !- Number of Vertices
  -1.77635683940025e-15, 4.57199999999999, 6.096, !- X,Y,Z Vertex 1 {m}
  -1.77635683940025e-15, 4.57199999999999, 0, !- X,Y,Z Vertex 2 {m}
  -1.77635683940025e-15, -7.105427357601e-15, 0, !- X,Y,Z Vertex 3 {m}
  -1.77635683940025e-15, -7.105427357601e-15, 6.096; !- X,Y,Z Vertex 4 {m}

BuildingSurface:Detailed,
  SuperMarket Deli A  - Story ground Wall 2, !- Name
  Wall,                                   !- Surface Type
  ,                                       !- Construction Name
  Zone SuperMarket Deli A  - Story ground, !- Zone Name
  SuperMarket Deli A  - Story ground,     !- Space Name
  Surface,                                !- Outside Boundary Condition
  SuperMarket Deli B  - Story ground Wall 3, !- Outside Boundary Condition Object
  NoSun,                                  !- Sun Exposure
  NoWind,                                 !- Wind Exposure
  ,                                       !- View Factor to Ground
  ,                                       !- Number of Vertices
  4.25246878891401, 4.57199999999999, 6.096, !- X,Y,Z Vertex 1 {m}
  4.25246878891401, 4.57199999999999, 0,  !- X,Y,Z Vertex 2 {m}
  7.105427357601e-15, 4.57199999999999, 0, !- X,Y,Z Vertex 3 {m}
  7.105427357601e-15, 4.57199999999999, 6.096; !- X,Y,Z Vertex 4 {m}

BuildingSurface:Detailed,
  SuperMarket Deli A  - Story ground Wall 3, !- Name
  Wall,                                   !- Surface Type
  ,                                       !- Construction Name
  Zone SuperMarket Deli A  - Story ground, !- Zone Name
  SuperMarket Deli A  - Story ground,     !- Space Name
  Outdoors,                               !- Outside Boundary Condition
  ,                                       !- Outside Boundary Condition Object
  SunExposed,                             !- Sun Exposure
  WindExposed,                            !- Wind Exposure
  ,                                       !- View Factor to Ground
  ,                                       !- Number of Vertices
  4.25246878891401, -7.105427357601e-15, 6.096, !- X,Y,Z Vertex 1 {m}
  7.105427357601e-15, -7.105427357601e-15, 6.096, !- X,Y,Z Vertex 2 {m}
  7.105427357601e-15, -7.105427357601e-15, 0, !- X,Y,Z Vertex 3 {m}
  4.25246878891401, -7.105427357601e-15, 0; !- X,Y,Z Vertex 4 {m}

FenestrationSurface:Detailed,
  SuperMarket Deli A  - Story ground Wall 3 FixedWindow 1, !- Name
  Window,                                 !- Surface Type
  ,                                       !- Construction Name
  SuperMarket Deli A  - Story ground Wall 3, !- Building Surface Name
  ,                                       !- Outside Boundary Condition Object
  ,                                       !- View Factor to Ground
  ,                                       !- Frame and Divider Name
  ,                                       !- Multiplier
  ,                                       !- Number of Vertices
  0.0254000000000071, -7.105427357601e-15, 1.44066736155355, !- X,Y,Z Vertex 1 {m}
  0.0254000000000071, -7.105427357601e-15, 0.762, !- X,Y,Z Vertex 2 {m}
  4.22706878891401, -7.105427357601e-15, 0.762, !- X,Y,Z Vertex 3 {m}
  4.22706878891401, -7.105427357601e-15, 1.44066736155355; !- X,Y,Z Vertex 4 {m}

BuildingSurface:Detailed,
  SuperMarket Deli A  - Story ground Wall 4, !- Name
  Wall,                                   !- Surface Type
  ,                                       !- Construction Name
  Zone SuperMarket Deli A  - Story ground, !- Zone Name
  SuperMarket Deli A  - Story ground,     !- Space Name
  Surface,                                !- Outside Boundary Condition
  SuperMarket DryStorage A  - Story ground Wall 1, !- Outside Boundary Condition Object
  NoSun,                                  !- Sun Exposure
  NoWind,                                 !- Wind Exposure
  ,                                       !- View Factor to Ground
  ,                                       !- Number of Vertices
  4.25246878891401, -7.105427357601e-15, 6.096, !- X,Y,Z Vertex 1 {m}
  4.25246878891401, -7.105427357601e-15, 0, !- X,Y,Z Vertex 2 {m}
  4.25246878891401, 4.57199999999999, 0,  !- X,Y,Z Vertex 3 {m}
  4.25246878891401, 4.57199999999999, 6.096; !- X,Y,Z Vertex 4 {m}

Zone,
  Zone SuperMarket Deli B  - Story ground, !- Name
  -0,                                     !- Direction of Relative North {deg}
  13.873976383943,                        !- X Origin {m}
  -21.8244543073497,                      !- Y Origin {m}
  0,                                      !- Z Origin {m}
  ,                                       !- Type
  1,                                      !- Multiplier
  ,                                       !- Ceiling Height {m}
  ,                                       !- Volume {m3}
  ,                                       !- Floor Area {m2}
  ,                                       !- Zone Inside Convection Algorithm
  ,                                       !- Zone Outside Convection Algorithm
  Yes;                                    !- Part of Total Floor Area

Space,
  SuperMarket Deli B  - Story ground,     !- Name
  Zone SuperMarket Deli B  - Story ground, !- Zone Name
  ,                                       !- Ceiling Height {m}
  ,                                       !- Volume {m3}
  ,                                       !- Floor Area {m2}
  SuperMarket Deli;                       !- Space Type

BuildingSurface:Detailed,
  SuperMarket Deli B  - Story ground Floor 1, !- Name
  Floor,                                  !- Surface Type
  ,                                       !- Construction Name
  Zone SuperMarket Deli B  - Story ground, !- Zone Name
  SuperMarket Deli B  - Story ground,     !- Space Name
  Ground,                                 !- Outside Boundary Condition
  ,                                       !- Outside Boundary Condition Object
  NoSun,                                  !- Sun Exposure
  NoWind,                                 !- Wind Exposure
  ,                                       !- View Factor to Ground
  ,                                       !- Number of Vertices
  7.105427357601e-15, -7.105427357601e-15, 0, !- X,Y,Z Vertex 1 {m}
  7.105427357601e-15, 43.6489086146994, 0, !- X,Y,Z Vertex 2 {m}
  4.25246878891401, 43.6489086146994, 0,  !- X,Y,Z Vertex 3 {m}
  4.25246878891401, -7.105427357601e-15, 0; !- X,Y,Z Vertex 4 {m}

BuildingSurface:Detailed,
  SuperMarket Deli B  - Story ground RoofCeiling 1, !- Name
  Roof,                                   !- Surface Type
  ,                                       !- Construction Name
  Zone SuperMarket Deli B  - Story ground, !- Zone Name
  SuperMarket Deli B  - Story ground,     !- Space Name
  Outdoors,                               !- Outside Boundary Condition
  ,                                       !- Outside Boundary Condition Object
  SunExposed,                             !- Sun Exposure
  WindExposed,                            !- Wind Exposure
  ,                                       !- View Factor to Ground
  ,                                       !- Number of Vertices
  4.25246878891401, -7.105427357601e-15, 6.096, !- X,Y,Z Vertex 1 {m}
  4.25246878891401, 43.6489086146994, 6.096, !- X,Y,Z Vertex 2 {m}
  7.105427357601e-15, 43.6489086146994, 6.096, !- X,Y,Z Vertex 3 {m}
  7.105427357601e-15, -7.105427357601e-15, 6.096; !- X,Y,Z Vertex 4 {m}

BuildingSurface:Detailed,
  SuperMarket Deli B  - Story ground Wall 1, !- Name
  Wall,                                   !- Surface Type
  ,                                       !- Construction Name
  Zone SuperMarket Deli B  - Story ground, !- Zone Name
  SuperMarket Deli B  - Story ground,     !- Space Name
  Surface,                                !- Outside Boundary Condition
  SuperMarket Bakery B  - Story ground Wall 4, !- Outside Boundary Condition Object
  NoSun,                                  !- Sun Exposure
  NoWind,                                 !- Wind Exposure
  ,                                       !- View Factor to Ground
  ,                                       !- Number of Vertices
  -1.77635683940025e-15, 43.6489086146994, 6.096, !- X,Y,Z Vertex 1 {m}
  -1.77635683940025e-15, 43.6489086146994, 0, !- X,Y,Z Vertex 2 {m}
  -1.77635683940025e-15, -7.105427357601e-15, 0, !- X,Y,Z Vertex 3 {m}
  -1.77635683940025e-15, -7.105427357601e-15, 6.096; !- X,Y,Z Vertex 4 {m}

BuildingSurface:Detailed,
  SuperMarket Deli B  - Story ground Wall 2, !- Name
  Wall,                                   !- Surface Type
  ,                                       !- Construction Name
  Zone SuperMarket Deli B  - Story ground, !- Zone Name
  SuperMarket Deli B  - Story ground,     !- Space Name
  Surface,                                !- Outside Boundary Condition
  SuperMarket Deli C  - Story ground Wall 3, !- Outside Boundary Condition Object
  NoSun,                                  !- Sun Exposure
  NoWind,                                 !- Wind Exposure
  ,                                       !- View Factor to Ground
  ,                                       !- Number of Vertices
  4.25246878891401, 43.6489086146994, 6.096, !- X,Y,Z Vertex 1 {m}
  4.25246878891401, 43.6489086146994, 0,  !- X,Y,Z Vertex 2 {m}
  7.105427357601e-15, 43.6489086146994, 0, !- X,Y,Z Vertex 3 {m}
  7.105427357601e-15, 43.6489086146994, 6.096; !- X,Y,Z Vertex 4 {m}

BuildingSurface:Detailed,
  SuperMarket Deli B  - Story ground Wall 3, !- Name
  Wall,                                   !- Surface Type
  ,                                       !- Construction Name
  Zone SuperMarket Deli B  - Story ground, !- Zone Name
  SuperMarket Deli B  - Story ground,     !- Space Name
  Surface,                                !- Outside Boundary Condition
  SuperMarket Deli A  - Story ground Wall 2, !- Outside Boundary Condition Object
  NoSun,                                  !- Sun Exposure
  NoWind,                                 !- Wind Exposure
  ,                                       !- View Factor to Ground
  ,                                       !- Number of Vertices
  7.105427357601e-15, -1.06581410364015e-14, 6.096, !- X,Y,Z Vertex 1 {m}
  7.105427357601e-15, -1.06581410364015e-14, 0, !- X,Y,Z Vertex 2 {m}
  4.25246878891401, -1.06581410364015e-14, 0, !- X,Y,Z Vertex 3 {m}
  4.25246878891401, -1.06581410364015e-14, 6.096; !- X,Y,Z Vertex 4 {m}

BuildingSurface:Detailed,
  SuperMarket Deli B  - Story ground Wall 4, !- Name
  Wall,                                   !- Surface Type
  ,                                       !- Construction Name
  Zone SuperMarket Deli B  - Story ground, !- Zone Name
  SuperMarket Deli B  - Story ground,     !- Space Name
  Surface,                                !- Outside Boundary Condition
  SuperMarket DryStorage B  - Story ground Wall 1, !- Outside Boundary Condition Object
  NoSun,                                  !- Sun Exposure
  NoWind,                                 !- Wind Exposure
  ,                                       !- View Factor to Ground
  ,                                       !- Number of Vertices
  4.25246878891401, -7.105427357601e-15, 6.096, !- X,Y,Z Vertex 1 {m}
  4.25246878891401, -7.105427357601e-15, 0, !- X,Y,Z Vertex 2 {m}
  4.25246878891401, 43.6489086146994, 0,  !- X,Y,Z Vertex 3 {m}
  4.25246878891401, 43.6489086146994, 6.096; !- X,Y,Z Vertex 4 {m}

Zone,
  Zone SuperMarket Deli C  - Story ground, !- Name
  -0,                                     !- Direction of Relative North {deg}
  13.873976383943,                        !- X Origin {m}
  21.8244543073497,                       !- Y Origin {m}
  0,                                      !- Z Origin {m}
  ,                                       !- Type
  1,                                      !- Multiplier
  ,                                       !- Ceiling Height {m}
  ,                                       !- Volume {m3}
  ,                                       !- Floor Area {m2}
  ,                                       !- Zone Inside Convection Algorithm
  ,                                       !- Zone Outside Convection Algorithm
  Yes;                                    !- Part of Total Floor Area

Space,
  SuperMarket Deli C  - Story ground,     !- Name
  Zone SuperMarket Deli C  - Story ground, !- Zone Name
  ,                                       !- Ceiling Height {m}
  ,                                       !- Volume {m3}
  ,                                       !- Floor Area {m2}
  SuperMarket Deli;                       !- Space Type

BuildingSurface:Detailed,
  SuperMarket Deli C  - Story ground Floor 1, !- Name
  Floor,                                  !- Surface Type
  ,                                       !- Construction Name
  Zone SuperMarket Deli C  - Story ground, !- Zone Name
  SuperMarket Deli C  - Story ground,     !- Space Name
  Ground,                                 !- Outside Boundary Condition
  ,                                       !- Outside Boundary Condition Object
  NoSun,                                  !- Sun Exposure
  NoWind,                                 !- Wind Exposure
  ,                                       !- View Factor to Ground
  ,                                       !- Number of Vertices
  7.105427357601e-15, 7.105427357601e-15, 0, !- X,Y,Z Vertex 1 {m}
  7.105427357601e-15, 4.57200000000001, 0, !- X,Y,Z Vertex 2 {m}
  4.25246878891401, 4.57200000000001, 0,  !- X,Y,Z Vertex 3 {m}
  4.25246878891401, 7.105427357601e-15, 0; !- X,Y,Z Vertex 4 {m}

BuildingSurface:Detailed,
  SuperMarket Deli C  - Story ground RoofCeiling 1, !- Name
  Roof,                                   !- Surface Type
  ,                                       !- Construction Name
  Zone SuperMarket Deli C  - Story ground, !- Zone Name
  SuperMarket Deli C  - Story ground,     !- Space Name
  Outdoors,                               !- Outside Boundary Condition
  ,                                       !- Outside Boundary Condition Object
  SunExposed,                             !- Sun Exposure
  WindExposed,                            !- Wind Exposure
  ,                                       !- View Factor to Ground
  ,                                       !- Number of Vertices
  4.25246878891401, 7.105427357601e-15, 6.096, !- X,Y,Z Vertex 1 {m}
  4.25246878891401, 4.57200000000001, 6.096, !- X,Y,Z Vertex 2 {m}
  7.105427357601e-15, 4.57200000000001, 6.096, !- X,Y,Z Vertex 3 {m}
  7.105427357601e-15, 7.105427357601e-15, 6.096; !- X,Y,Z Vertex 4 {m}

BuildingSurface:Detailed,
  SuperMarket Deli C  - Story ground Wall 1, !- Name
  Wall,                                   !- Surface Type
  ,                                       !- Construction Name
  Zone SuperMarket Deli C  - Story ground, !- Zone Name
  SuperMarket Deli C  - Story ground,     !- Space Name
  Surface,                                !- Outside Boundary Condition
  SuperMarket Bakery C  - Story ground Wall 4, !- Outside Boundary Condition Object
  NoSun,                                  !- Sun Exposure
  NoWind,                                 !- Wind Exposure
  ,                                       !- View Factor to Ground
  ,                                       !- Number of Vertices
  -1.77635683940025e-15, 4.57200000000001, 6.096, !- X,Y,Z Vertex 1 {m}
  -1.77635683940025e-15, 4.57200000000001, 0, !- X,Y,Z Vertex 2 {m}
  -1.77635683940025e-15, 7.105427357601e-15, 0, !- X,Y,Z Vertex 3 {m}
  -1.77635683940025e-15, 7.105427357601e-15, 6.096; !- X,Y,Z Vertex 4 {m}

BuildingSurface:Detailed,
  SuperMarket Deli C  - Story ground Wall 2, !- Name
  Wall,                                   !- Surface Type
  ,                                       !- Construction Name
  Zone SuperMarket Deli C  - Story ground, !- Zone Name
  SuperMarket Deli C  - Story ground,     !- Space Name
  Outdoors,                               !- Outside Boundary Condition
  ,                                       !- Outside Boundary Condition Object
  SunExposed,                             !- Sun Exposure
  WindExposed,                            !- Wind Exposure
  ,                                       !- View Factor to Ground
  ,                                       !- Number of Vertices
  7.105427357601e-15, 4.57200000000001, 6.096, !- X,Y,Z Vertex 1 {m}
  4.25246878891401, 4.57200000000001, 6.096, !- X,Y,Z Vertex 2 {m}
  4.25246878891401, 4.57200000000001, 0,  !- X,Y,Z Vertex 3 {m}
  7.105427357601e-15, 4.57200000000001, 0; !- X,Y,Z Vertex 4 {m}

FenestrationSurface:Detailed,
  SuperMarket Deli C  - Story ground Wall 2 FixedWindow 1, !- Name
  Window,                                 !- Surface Type
  ,                                       !- Construction Name
  SuperMarket Deli C  - Story ground Wall 2, !- Building Surface Name
  ,                                       !- Outside Boundary Condition Object
  ,                                       !- View Factor to Ground
  ,                                       !- Frame and Divider Name
  ,                                       !- Multiplier
  ,                                       !- Number of Vertices
  4.22706878891401, 4.57200000000001, 1.44066736155355, !- X,Y,Z Vertex 1 {m}
  4.22706878891401, 4.57200000000001, 0.762, !- X,Y,Z Vertex 2 {m}
  0.0254000000000065, 4.57200000000001, 0.762, !- X,Y,Z Vertex 3 {m}
  0.0254000000000065, 4.57200000000001, 1.44066736155355; !- X,Y,Z Vertex 4 {m}

BuildingSurface:Detailed,
  SuperMarket Deli C  - Story ground Wall 3, !- Name
  Wall,                                   !- Surface Type
  ,                                       !- Construction Name
  Zone SuperMarket Deli C  - Story ground, !- Zone Name
  SuperMarket Deli C  - Story ground,     !- Space Name
  Surface,                                !- Outside Boundary Condition
  SuperMarket Deli B  - Story ground Wall 2, !- Outside Boundary Condition Object
  NoSun,                                  !- Sun Exposure
  NoWind,                                 !- Wind Exposure
  ,                                       !- View Factor to Ground
  ,                                       !- Number of Vertices
  7.105427357601e-15, 7.105427357601e-15, 6.096, !- X,Y,Z Vertex 1 {m}
  7.105427357601e-15, 7.105427357601e-15, 0, !- X,Y,Z Vertex 2 {m}
  4.25246878891401, 7.105427357601e-15, 0, !- X,Y,Z Vertex 3 {m}
  4.25246878891401, 7.105427357601e-15, 6.096; !- X,Y,Z Vertex 4 {m}

BuildingSurface:Detailed,
  SuperMarket Deli C  - Story ground Wall 4, !- Name
  Wall,                                   !- Surface Type
  ,                                       !- Construction Name
  Zone SuperMarket Deli C  - Story ground, !- Zone Name
  SuperMarket Deli C  - Story ground,     !- Space Name
  Surface,                                !- Outside Boundary Condition
  SuperMarket DryStorage C  - Story ground Wall 2, !- Outside Boundary Condition Object
  NoSun,                                  !- Sun Exposure
  NoWind,                                 !- Wind Exposure
  ,                                       !- View Factor to Ground
  ,                                       !- Number of Vertices
  4.25246878891401, 7.105427357601e-15, 6.096, !- X,Y,Z Vertex 1 {m}
  4.25246878891401, 7.105427357601e-15, 0, !- X,Y,Z Vertex 2 {m}
  4.25246878891401, 4.57200000000001, 0,  !- X,Y,Z Vertex 3 {m}
  4.25246878891401, 4.57200000000001, 6.096; !- X,Y,Z Vertex 4 {m}

Zone,
  Zone SuperMarket Dining A  - Story ground, !- Name
  -0,                                     !- Direction of Relative North {deg}
  4.98101092779688,                       !- X Origin {m}
  -26.3964543073497,                      !- Y Origin {m}
  0,                                      !- Z Origin {m}
  ,                                       !- Type
  1,                                      !- Multiplier
  ,                                       !- Ceiling Height {m}
  ,                                       !- Volume {m3}
  ,                                       !- Floor Area {m2}
  ,                                       !- Zone Inside Convection Algorithm
  ,                                       !- Zone Outside Convection Algorithm
  Yes;                                    !- Part of Total Floor Area

Space,
  SuperMarket Dining A  - Story ground,   !- Name
  Zone SuperMarket Dining A  - Story ground, !- Zone Name
  ,                                       !- Ceiling Height {m}
  ,                                       !- Volume {m3}
  ,                                       !- Floor Area {m2}
  SuperMarket Dining;                     !- Space Type

SpaceList,
  SuperMarket Dining,                     !- Name
  SuperMarket Dining A  - Story ground,   !- Space Name 1
  SuperMarket Dining B  - Story ground,   !- Space Name 2
  SuperMarket Dining C  - Story ground;   !- Space Name 3

BuildingSurface:Detailed,
  SuperMarket Dining A  - Story ground Floor 1, !- Name
  Floor,                                  !- Surface Type
  ,                                       !- Construction Name
  Zone SuperMarket Dining A  - Story ground, !- Zone Name
  SuperMarket Dining A  - Story ground,   !- Space Name
  Ground,                                 !- Outside Boundary Condition
  ,                                       !- Outside Boundary Condition Object
  NoSun,                                  !- Sun Exposure
  NoWind,                                 !- Wind Exposure
  ,                                       !- View Factor to Ground
  ,                                       !- Number of Vertices
  -4.44089209850063e-15, -7.105427357601e-15, 0, !- X,Y,Z Vertex 1 {m}
  -4.44089209850063e-15, 4.57199999999999, 0, !- X,Y,Z Vertex 2 {m}
  0.879001928434746, 4.57199999999999, 0, !- X,Y,Z Vertex 3 {m}
  0.879001928434746, -7.105427357601e-15, 0; !- X,Y,Z Vertex 4 {m}

BuildingSurface:Detailed,
  SuperMarket Dining A  - Story ground RoofCeiling 1, !- Name
  Roof,                                   !- Surface Type
  ,                                       !- Construction Name
  Zone SuperMarket Dining A  - Story ground, !- Zone Name
  SuperMarket Dining A  - Story ground,   !- Space Name
  Outdoors,                               !- Outside Boundary Condition
  ,                                       !- Outside Boundary Condition Object
  SunExposed,                             !- Sun Exposure
  WindExposed,                            !- Wind Exposure
  ,                                       !- View Factor to Ground
  ,                                       !- Number of Vertices
  0.879001928434746, -7.105427357601e-15, 6.096, !- X,Y,Z Vertex 1 {m}
  0.879001928434746, 4.57199999999999, 6.096, !- X,Y,Z Vertex 2 {m}
  -4.44089209850063e-15, 4.57199999999999, 6.096, !- X,Y,Z Vertex 3 {m}
  -4.44089209850063e-15, -7.105427357601e-15, 6.096; !- X,Y,Z Vertex 4 {m}

BuildingSurface:Detailed,
  SuperMarket Dining A  - Story ground Wall 1, !- Name
  Wall,                                   !- Surface Type
  ,                                       !- Construction Name
  Zone SuperMarket Dining A  - Story ground, !- Zone Name
  SuperMarket Dining A  - Story ground,   !- Space Name
  Surface,                                !- Outside Boundary Condition
  SuperMarket Vestibule A  - Story ground Wall 4, !- Outside Boundary Condition Object
  NoSun,                                  !- Sun Exposure
  NoWind,                                 !- Wind Exposure
  ,                                       !- View Factor to Ground
  ,                                       !- Number of Vertices
  4.44089209850063e-15, 4.57199999999999, 6.096, !- X,Y,Z Vertex 1 {m}
  4.44089209850063e-15, 4.57199999999999, 0, !- X,Y,Z Vertex 2 {m}
  4.44089209850063e-15, -7.105427357601e-15, 0, !- X,Y,Z Vertex 3 {m}
  4.44089209850063e-15, -7.105427357601e-15, 6.096; !- X,Y,Z Vertex 4 {m}

BuildingSurface:Detailed,
  SuperMarket Dining A  - Story ground Wall 2, !- Name
  Wall,                                   !- Surface Type
  ,                                       !- Construction Name
  Zone SuperMarket Dining A  - Story ground, !- Zone Name
  SuperMarket Dining A  - Story ground,   !- Space Name
  Surface,                                !- Outside Boundary Condition
  SuperMarket Dining B  - Story ground Wall 3, !- Outside Boundary Condition Object
  NoSun,                                  !- Sun Exposure
  NoWind,                                 !- Wind Exposure
  ,                                       !- View Factor to Ground
  ,                                       !- Number of Vertices
  0.879001928434746, 4.57199999999999, 6.096, !- X,Y,Z Vertex 1 {m}
  0.879001928434746, 4.57199999999999, 0, !- X,Y,Z Vertex 2 {m}
  -4.44089209850063e-15, 4.57199999999999, 0, !- X,Y,Z Vertex 3 {m}
  -4.44089209850063e-15, 4.57199999999999, 6.096; !- X,Y,Z Vertex 4 {m}

BuildingSurface:Detailed,
  SuperMarket Dining A  - Story ground Wall 3, !- Name
  Wall,                                   !- Surface Type
  ,                                       !- Construction Name
  Zone SuperMarket Dining A  - Story ground, !- Zone Name
  SuperMarket Dining A  - Story ground,   !- Space Name
  Outdoors,                               !- Outside Boundary Condition
  ,                                       !- Outside Boundary Condition Object
  SunExposed,                             !- Sun Exposure
  WindExposed,                            !- Wind Exposure
  ,                                       !- View Factor to Ground
  ,                                       !- Number of Vertices
  0.879001928434746, -7.105427357601e-15, 6.096, !- X,Y,Z Vertex 1 {m}
  -4.44089209850063e-15, -7.105427357601e-15, 6.096, !- X,Y,Z Vertex 2 {m}
  -4.44089209850063e-15, -7.105427357601e-15, 0, !- X,Y,Z Vertex 3 {m}
  0.879001928434746, -7.105427357601e-15, 0; !- X,Y,Z Vertex 4 {m}

FenestrationSurface:Detailed,
  SuperMarket Dining A  - Story ground Wall 3 FixedWindow 1, !- Name
  Window,                                 !- Surface Type
  ,                                       !- Construction Name
  SuperMarket Dining A  - Story ground Wall 3, !- Building Surface Name
  ,                                       !- Outside Boundary Condition Object
  ,                                       !- View Factor to Ground
  ,                                       !- Frame and Divider Name
  ,                                       !- Multiplier
  ,                                       !- Number of Vertices
  0.0253999999999956, -7.105427357601e-15, 1.47369060695763, !- X,Y,Z Vertex 1 {m}
  0.0253999999999956, -7.105427357601e-15, 0.762, !- X,Y,Z Vertex 2 {m}
  0.853601928434746, -7.105427357601e-15, 0.762, !- X,Y,Z Vertex 3 {m}
  0.853601928434746, -7.105427357601e-15, 1.47369060695763; !- X,Y,Z Vertex 4 {m}

BuildingSurface:Detailed,
  SuperMarket Dining A  - Story ground Wall 4, !- Name
  Wall,                                   !- Surface Type
  ,                                       !- Construction Name
  Zone SuperMarket Dining A  - Story ground, !- Zone Name
  SuperMarket Dining A  - Story ground,   !- Space Name
  Surface,                                !- Outside Boundary Condition
  SuperMarket Meeting A  - Story ground Wall 1, !- Outside Boundary Condition Object
  NoSun,                                  !- Sun Exposure
  NoWind,                                 !- Wind Exposure
  ,                                       !- View Factor to Ground
  ,                                       !- Number of Vertices
  0.879001928434751, -7.105427357601e-15, 6.096, !- X,Y,Z Vertex 1 {m}
  0.879001928434751, -7.105427357601e-15, 0, !- X,Y,Z Vertex 2 {m}
  0.879001928434751, 4.57199999999999, 0, !- X,Y,Z Vertex 3 {m}
  0.879001928434751, 4.57199999999999, 6.096; !- X,Y,Z Vertex 4 {m}

Zone,
  Zone SuperMarket Dining B  - Story ground, !- Name
  -0,                                     !- Direction of Relative North {deg}
  4.98101092779688,                       !- X Origin {m}
  -21.8244543073497,                      !- Y Origin {m}
  0,                                      !- Z Origin {m}
  ,                                       !- Type
  1,                                      !- Multiplier
  ,                                       !- Ceiling Height {m}
  ,                                       !- Volume {m3}
  ,                                       !- Floor Area {m2}
  ,                                       !- Zone Inside Convection Algorithm
  ,                                       !- Zone Outside Convection Algorithm
  Yes;                                    !- Part of Total Floor Area

Space,
  SuperMarket Dining B  - Story ground,   !- Name
  Zone SuperMarket Dining B  - Story ground, !- Zone Name
  ,                                       !- Ceiling Height {m}
  ,                                       !- Volume {m3}
  ,                                       !- Floor Area {m2}
  SuperMarket Dining;                     !- Space Type

BuildingSurface:Detailed,
  SuperMarket Dining B  - Story ground Floor 1, !- Name
  Floor,                                  !- Surface Type
  ,                                       !- Construction Name
  Zone SuperMarket Dining B  - Story ground, !- Zone Name
  SuperMarket Dining B  - Story ground,   !- Space Name
  Ground,                                 !- Outside Boundary Condition
  ,                                       !- Outside Boundary Condition Object
  NoSun,                                  !- Sun Exposure
  NoWind,                                 !- Wind Exposure
  ,                                       !- View Factor to Ground
  ,                                       !- Number of Vertices
  -4.44089209850063e-15, -7.105427357601e-15, 0, !- X,Y,Z Vertex 1 {m}
  -4.44089209850063e-15, 43.6489086146994, 0, !- X,Y,Z Vertex 2 {m}
  0.879001928434746, 43.6489086146994, 0, !- X,Y,Z Vertex 3 {m}
  0.879001928434746, -7.105427357601e-15, 0; !- X,Y,Z Vertex 4 {m}

BuildingSurface:Detailed,
  SuperMarket Dining B  - Story ground RoofCeiling 1, !- Name
  Roof,                                   !- Surface Type
  ,                                       !- Construction Name
  Zone SuperMarket Dining B  - Story ground, !- Zone Name
  SuperMarket Dining B  - Story ground,   !- Space Name
  Outdoors,                               !- Outside Boundary Condition
  ,                                       !- Outside Boundary Condition Object
  SunExposed,                             !- Sun Exposure
  WindExposed,                            !- Wind Exposure
  ,                                       !- View Factor to Ground
  ,                                       !- Number of Vertices
  0.879001928434746, -7.105427357601e-15, 6.096, !- X,Y,Z Vertex 1 {m}
  0.879001928434746, 43.6489086146994, 6.096, !- X,Y,Z Vertex 2 {m}
  -4.44089209850063e-15, 43.6489086146994, 6.096, !- X,Y,Z Vertex 3 {m}
  -4.44089209850063e-15, -7.105427357601e-15, 6.096; !- X,Y,Z Vertex 4 {m}

BuildingSurface:Detailed,
  SuperMarket Dining B  - Story ground Wall 1, !- Name
  Wall,                                   !- Surface Type
  ,                                       !- Construction Name
  Zone SuperMarket Dining B  - Story ground, !- Zone Name
  SuperMarket Dining B  - Story ground,   !- Space Name
  Surface,                                !- Outside Boundary Condition
  SuperMarket Vestibule B  - Story ground Wall 4, !- Outside Boundary Condition Object
  NoSun,                                  !- Sun Exposure
  NoWind,                                 !- Wind Exposure
  ,                                       !- View Factor to Ground
  ,                                       !- Number of Vertices
  4.44089209850063e-15, 43.6489086146994, 6.096, !- X,Y,Z Vertex 1 {m}
  4.44089209850063e-15, 43.6489086146994, 0, !- X,Y,Z Vertex 2 {m}
  4.44089209850063e-15, -7.105427357601e-15, 0, !- X,Y,Z Vertex 3 {m}
  4.44089209850063e-15, -7.105427357601e-15, 6.096; !- X,Y,Z Vertex 4 {m}

BuildingSurface:Detailed,
  SuperMarket Dining B  - Story ground Wall 2, !- Name
  Wall,                                   !- Surface Type
  ,                                       !- Construction Name
  Zone SuperMarket Dining B  - Story ground, !- Zone Name
  SuperMarket Dining B  - Story ground,   !- Space Name
  Surface,                                !- Outside Boundary Condition
  SuperMarket Dining C  - Story ground Wall 3, !- Outside Boundary Condition Object
  NoSun,                                  !- Sun Exposure
  NoWind,                                 !- Wind Exposure
  ,                                       !- View Factor to Ground
  ,                                       !- Number of Vertices
  0.879001928434746, 43.6489086146994, 6.096, !- X,Y,Z Vertex 1 {m}
  0.879001928434746, 43.6489086146994, 0, !- X,Y,Z Vertex 2 {m}
  -4.44089209850063e-15, 43.6489086146994, 0, !- X,Y,Z Vertex 3 {m}
  -4.44089209850063e-15, 43.6489086146994, 6.096; !- X,Y,Z Vertex 4 {m}

BuildingSurface:Detailed,
  SuperMarket Dining B  - Story ground Wall 3, !- Name
  Wall,                                   !- Surface Type
  ,                                       !- Construction Name
  Zone SuperMarket Dining B  - Story ground, !- Zone Name
  SuperMarket Dining B  - Story ground,   !- Space Name
  Surface,                                !- Outside Boundary Condition
  SuperMarket Dining A  - Story ground Wall 2, !- Outside Boundary Condition Object
  NoSun,                                  !- Sun Exposure
  NoWind,                                 !- Wind Exposure
  ,                                       !- View Factor to Ground
  ,                                       !- Number of Vertices
  -4.44089209850063e-15, -1.06581410364015e-14, 6.096, !- X,Y,Z Vertex 1 {m}
  -4.44089209850063e-15, -1.06581410364015e-14, 0, !- X,Y,Z Vertex 2 {m}
  0.879001928434746, -1.06581410364015e-14, 0, !- X,Y,Z Vertex 3 {m}
  0.879001928434746, -1.06581410364015e-14, 6.096; !- X,Y,Z Vertex 4 {m}

BuildingSurface:Detailed,
  SuperMarket Dining B  - Story ground Wall 4, !- Name
  Wall,                                   !- Surface Type
  ,                                       !- Construction Name
  Zone SuperMarket Dining B  - Story ground, !- Zone Name
  SuperMarket Dining B  - Story ground,   !- Space Name
  Surface,                                !- Outside Boundary Condition
  SuperMarket Meeting B  - Story ground Wall 1, !- Outside Boundary Condition Object
  NoSun,                                  !- Sun Exposure
  NoWind,                                 !- Wind Exposure
  ,                                       !- View Factor to Ground
  ,                                       !- Number of Vertices
  0.879001928434751, -7.105427357601e-15, 6.096, !- X,Y,Z Vertex 1 {m}
  0.879001928434751, -7.105427357601e-15, 0, !- X,Y,Z Vertex 2 {m}
  0.879001928434751, 43.6489086146994, 0, !- X,Y,Z Vertex 3 {m}
  0.879001928434751, 43.6489086146994, 6.096; !- X,Y,Z Vertex 4 {m}

Zone,
  Zone SuperMarket Dining C  - Story ground, !- Name
  -0,                                     !- Direction of Relative North {deg}
  4.98101092779688,                       !- X Origin {m}
  21.8244543073497,                       !- Y Origin {m}
  0,                                      !- Z Origin {m}
  ,                                       !- Type
  1,                                      !- Multiplier
  ,                                       !- Ceiling Height {m}
  ,                                       !- Volume {m3}
  ,                                       !- Floor Area {m2}
  ,                                       !- Zone Inside Convection Algorithm
  ,                                       !- Zone Outside Convection Algorithm
  Yes;                                    !- Part of Total Floor Area

Space,
  SuperMarket Dining C  - Story ground,   !- Name
  Zone SuperMarket Dining C  - Story ground, !- Zone Name
  ,                                       !- Ceiling Height {m}
  ,                                       !- Volume {m3}
  ,                                       !- Floor Area {m2}
  SuperMarket Dining;                     !- Space Type

BuildingSurface:Detailed,
  SuperMarket Dining C  - Story ground Floor 1, !- Name
  Floor,                                  !- Surface Type
  ,                                       !- Construction Name
  Zone SuperMarket Dining C  - Story ground, !- Zone Name
  SuperMarket Dining C  - Story ground,   !- Space Name
  Ground,                                 !- Outside Boundary Condition
  ,                                       !- Outside Boundary Condition Object
  NoSun,                                  !- Sun Exposure
  NoWind,                                 !- Wind Exposure
  ,                                       !- View Factor to Ground
  ,                                       !- Number of Vertices
  -4.44089209850063e-15, 7.105427357601e-15, 0, !- X,Y,Z Vertex 1 {m}
  -4.44089209850063e-15, 4.57200000000001, 0, !- X,Y,Z Vertex 2 {m}
  0.879001928434746, 4.57200000000001, 0, !- X,Y,Z Vertex 3 {m}
  0.879001928434746, 7.105427357601e-15, 0; !- X,Y,Z Vertex 4 {m}

BuildingSurface:Detailed,
  SuperMarket Dining C  - Story ground RoofCeiling 1, !- Name
  Roof,                                   !- Surface Type
  ,                                       !- Construction Name
  Zone SuperMarket Dining C  - Story ground, !- Zone Name
  SuperMarket Dining C  - Story ground,   !- Space Name
  Outdoors,                               !- Outside Boundary Condition
  ,                                       !- Outside Boundary Condition Object
  SunExposed,                             !- Sun Exposure
  WindExposed,                            !- Wind Exposure
  ,                                       !- View Factor to Ground
  ,                                       !- Number of Vertices
  0.879001928434746, 7.105427357601e-15, 6.096, !- X,Y,Z Vertex 1 {m}
  0.879001928434746, 4.57200000000001, 6.096, !- X,Y,Z Vertex 2 {m}
  -4.44089209850063e-15, 4.57200000000001, 6.096, !- X,Y,Z Vertex 3 {m}
  -4.44089209850063e-15, 7.105427357601e-15, 6.096; !- X,Y,Z Vertex 4 {m}

BuildingSurface:Detailed,
  SuperMarket Dining C  - Story ground Wall 1, !- Name
  Wall,                                   !- Surface Type
  ,                                       !- Construction Name
  Zone SuperMarket Dining C  - Story ground, !- Zone Name
  SuperMarket Dining C  - Story ground,   !- Space Name
  Surface,                                !- Outside Boundary Condition
  SuperMarket Vestibule C  - Story ground Wall 4, !- Outside Boundary Condition Object
  NoSun,                                  !- Sun Exposure
  NoWind,                                 !- Wind Exposure
  ,                                       !- View Factor to Ground
  ,                                       !- Number of Vertices
  4.44089209850063e-15, 4.57200000000001, 6.096, !- X,Y,Z Vertex 1 {m}
  4.44089209850063e-15, 4.57200000000001, 0, !- X,Y,Z Vertex 2 {m}
  4.44089209850063e-15, 7.105427357601e-15, 0, !- X,Y,Z Vertex 3 {m}
  4.44089209850063e-15, 7.105427357601e-15, 6.096; !- X,Y,Z Vertex 4 {m}

BuildingSurface:Detailed,
  SuperMarket Dining C  - Story ground Wall 2, !- Name
  Wall,                                   !- Surface Type
  ,                                       !- Construction Name
  Zone SuperMarket Dining C  - Story ground, !- Zone Name
  SuperMarket Dining C  - Story ground,   !- Space Name
  Outdoors,                               !- Outside Boundary Condition
  ,                                       !- Outside Boundary Condition Object
  SunExposed,                             !- Sun Exposure
  WindExposed,                            !- Wind Exposure
  ,                                       !- View Factor to Ground
  ,                                       !- Number of Vertices
  -4.44089209850063e-15, 4.57200000000001, 6.096, !- X,Y,Z Vertex 1 {m}
  0.879001928434746, 4.57200000000001, 6.096, !- X,Y,Z Vertex 2 {m}
  0.879001928434746, 4.57200000000001, 0, !- X,Y,Z Vertex 3 {m}
  -4.44089209850063e-15, 4.57200000000001, 0; !- X,Y,Z Vertex 4 {m}

FenestrationSurface:Detailed,
  SuperMarket Dining C  - Story ground Wall 2 FixedWindow 1, !- Name
  Window,                                 !- Surface Type
  ,                                       !- Construction Name
  SuperMarket Dining C  - Story ground Wall 2, !- Building Surface Name
  ,                                       !- Outside Boundary Condition Object
  ,                                       !- View Factor to Ground
  ,                                       !- Frame and Divider Name
  ,                                       !- Multiplier
  ,                                       !- Number of Vertices
  0.853601928434746, 4.57200000000001, 1.47369060695763, !- X,Y,Z Vertex 1 {m}
  0.853601928434746, 4.57200000000001, 0.762, !- X,Y,Z Vertex 2 {m}
  0.0253999999999955, 4.57200000000001, 0.762, !- X,Y,Z Vertex 3 {m}
  0.0253999999999955, 4.57200000000001, 1.47369060695763; !- X,Y,Z Vertex 4 {m}

BuildingSurface:Detailed,
  SuperMarket Dining C  - Story ground Wall 3, !- Name
  Wall,                                   !- Surface Type
  ,                                       !- Construction Name
  Zone SuperMarket Dining C  - Story ground, !- Zone Name
  SuperMarket Dining C  - Story ground,   !- Space Name
  Surface,                                !- Outside Boundary Condition
  SuperMarket Dining B  - Story ground Wall 2, !- Outside Boundary Condition Object
  NoSun,                                  !- Sun Exposure
  NoWind,                                 !- Wind Exposure
  ,                                       !- View Factor to Ground
  ,                                       !- Number of Vertices
  -4.44089209850063e-15, 7.105427357601e-15, 6.096, !- X,Y,Z Vertex 1 {m}
  -4.44089209850063e-15, 7.105427357601e-15, 0, !- X,Y,Z Vertex 2 {m}
  0.879001928434746, 7.105427357601e-15, 0, !- X,Y,Z Vertex 3 {m}
  0.879001928434746, 7.105427357601e-15, 6.096; !- X,Y,Z Vertex 4 {m}

BuildingSurface:Detailed,
  SuperMarket Dining C  - Story ground Wall 4, !- Name
  Wall,                                   !- Surface Type
  ,                                       !- Construction Name
  Zone SuperMarket Dining C  - Story ground, !- Zone Name
  SuperMarket Dining C  - Story ground,   !- Space Name
  Surface,                                !- Outside Boundary Condition
  SuperMarket Meeting C  - Story ground Wall 1, !- Outside Boundary Condition Object
  NoSun,                                  !- Sun Exposure
  NoWind,                                 !- Wind Exposure
  ,                                       !- View Factor to Ground
  ,                                       !- Number of Vertices
  0.879001928434751, 7.105427357601e-15, 6.096, !- X,Y,Z Vertex 1 {m}
  0.879001928434751, 7.105427357601e-15, 0, !- X,Y,Z Vertex 2 {m}
  0.879001928434751, 4.57200000000001, 0, !- X,Y,Z Vertex 3 {m}
  0.879001928434751, 4.57200000000001, 6.096; !- X,Y,Z Vertex 4 {m}

Zone,
  Zone SuperMarket DryStorage A  - Story ground, !- Name
  -0,                                     !- Direction of Relative North {deg}
  18.126445172857,                        !- X Origin {m}
  -26.3964543073497,                      !- Y Origin {m}
  0,                                      !- Z Origin {m}
  ,                                       !- Type
  1,                                      !- Multiplier
  ,                                       !- Ceiling Height {m}
  ,                                       !- Volume {m3}
  ,                                       !- Floor Area {m2}
  ,                                       !- Zone Inside Convection Algorithm
  ,                                       !- Zone Outside Convection Algorithm
  Yes;                                    !- Part of Total Floor Area

Space,
  SuperMarket DryStorage A  - Story ground, !- Name
  Zone SuperMarket DryStorage A  - Story ground, !- Zone Name
  ,                                       !- Ceiling Height {m}
  ,                                       !- Volume {m3}
  ,                                       !- Floor Area {m2}
  SuperMarket DryStorage;                 !- Space Type

SpaceList,
  SuperMarket DryStorage,                 !- Name
  SuperMarket DryStorage A  - Story ground, !- Space Name 1
  SuperMarket DryStorage C  - Story ground, !- Space Name 2
  SuperMarket DryStorage B  - Story ground; !- Space Name 3

BuildingSurface:Detailed,
  SuperMarket DryStorage A  - Story ground Floor 1, !- Name
  Floor,                                  !- Surface Type
  ,                                       !- Construction Name
  Zone SuperMarket DryStorage A  - Story ground, !- Zone Name
  SuperMarket DryStorage A  - Story ground, !- Space Name
  Ground,                                 !- Outside Boundary Condition
  ,                                       !- Outside Boundary Condition Object
  NoSun,                                  !- Sun Exposure
  NoWind,                                 !- Wind Exposure
  ,                                       !- View Factor to Ground
  ,                                       !- Number of Vertices
  -2.8421709430404e-14, -7.105427357601e-15, 0, !- X,Y,Z Vertex 1 {m}
  -2.8421709430404e-14, 4.57199999999999, 0, !- X,Y,Z Vertex 2 {m}
  7.99812565512697, 4.57199999999999, 0,  !- X,Y,Z Vertex 3 {m}
  7.99812565512697, -7.105427357601e-15, 0; !- X,Y,Z Vertex 4 {m}

BuildingSurface:Detailed,
  SuperMarket DryStorage A  - Story ground RoofCeiling 1, !- Name
  Roof,                                   !- Surface Type
  ,                                       !- Construction Name
  Zone SuperMarket DryStorage A  - Story ground, !- Zone Name
  SuperMarket DryStorage A  - Story ground, !- Space Name
  Outdoors,                               !- Outside Boundary Condition
  ,                                       !- Outside Boundary Condition Object
  SunExposed,                             !- Sun Exposure
  WindExposed,                            !- Wind Exposure
  ,                                       !- View Factor to Ground
  ,                                       !- Number of Vertices
  7.99812565512697, -7.105427357601e-15, 6.096, !- X,Y,Z Vertex 1 {m}
  7.99812565512697, 4.57199999999999, 6.096, !- X,Y,Z Vertex 2 {m}
  -2.8421709430404e-14, 4.57199999999999, 6.096, !- X,Y,Z Vertex 3 {m}
  -2.8421709430404e-14, -7.105427357601e-15, 6.096; !- X,Y,Z Vertex 4 {m}

BuildingSurface:Detailed,
  SuperMarket DryStorage A  - Story ground Wall 1, !- Name
  Wall,                                   !- Surface Type
  ,                                       !- Construction Name
  Zone SuperMarket DryStorage A  - Story ground, !- Zone Name
  SuperMarket DryStorage A  - Story ground, !- Space Name
  Surface,                                !- Outside Boundary Condition
  SuperMarket Deli A  - Story ground Wall 4, !- Outside Boundary Condition Object
  NoSun,                                  !- Sun Exposure
  NoWind,                                 !- Wind Exposure
  ,                                       !- View Factor to Ground
  ,                                       !- Number of Vertices
  1.06581410364015e-14, 4.57199999999999, 6.096, !- X,Y,Z Vertex 1 {m}
  1.06581410364015e-14, 4.57199999999999, 0, !- X,Y,Z Vertex 2 {m}
  1.06581410364015e-14, -7.105427357601e-15, 0, !- X,Y,Z Vertex 3 {m}
  1.06581410364015e-14, -7.105427357601e-15, 6.096; !- X,Y,Z Vertex 4 {m}

BuildingSurface:Detailed,
  SuperMarket DryStorage A  - Story ground Wall 2, !- Name
  Wall,                                   !- Surface Type
  ,                                       !- Construction Name
  Zone SuperMarket DryStorage A  - Story ground, !- Zone Name
  SuperMarket DryStorage A  - Story ground, !- Space Name
  Surface,                                !- Outside Boundary Condition
  SuperMarket DryStorage B  - Story ground Wall 3, !- Outside Boundary Condition Object
  NoSun,                                  !- Sun Exposure
  NoWind,                                 !- Wind Exposure
  ,                                       !- View Factor to Ground
  ,                                       !- Number of Vertices
  7.99812565512697, 4.57199999999999, 6.096, !- X,Y,Z Vertex 1 {m}
  7.99812565512697, 4.57199999999999, 0,  !- X,Y,Z Vertex 2 {m}
  -2.8421709430404e-14, 4.57199999999999, 0, !- X,Y,Z Vertex 3 {m}
  -2.8421709430404e-14, 4.57199999999999, 6.096; !- X,Y,Z Vertex 4 {m}

BuildingSurface:Detailed,
  SuperMarket DryStorage A  - Story ground Wall 3, !- Name
  Wall,                                   !- Surface Type
  ,                                       !- Construction Name
  Zone SuperMarket DryStorage A  - Story ground, !- Zone Name
  SuperMarket DryStorage A  - Story ground, !- Space Name
  Outdoors,                               !- Outside Boundary Condition
  ,                                       !- Outside Boundary Condition Object
  SunExposed,                             !- Sun Exposure
  WindExposed,                            !- Wind Exposure
  ,                                       !- View Factor to Ground
  ,                                       !- Number of Vertices
  7.99812565512697, -7.105427357601e-15, 6.096, !- X,Y,Z Vertex 1 {m}
  -2.8421709430404e-14, -7.105427357601e-15, 6.096, !- X,Y,Z Vertex 2 {m}
  -2.8421709430404e-14, -7.105427357601e-15, 0, !- X,Y,Z Vertex 3 {m}
  7.99812565512697, -7.105427357601e-15, 0; !- X,Y,Z Vertex 4 {m}

FenestrationSurface:Detailed,
  SuperMarket DryStorage A  - Story ground Wall 3 FixedWindow 1, !- Name
  Window,                                 !- Surface Type
  ,                                       !- Construction Name
  SuperMarket DryStorage A  - Story ground Wall 3, !- Building Surface Name
  ,                                       !- Outside Boundary Condition Object
  ,                                       !- View Factor to Ground
  ,                                       !- Frame and Divider Name
  ,                                       !- Multiplier
  ,                                       !- Number of Vertices
  0.0253999999999716, -7.105427357601e-15, 1.43684627811143, !- X,Y,Z Vertex 1 {m}
  0.0253999999999716, -7.105427357601e-15, 0.762, !- X,Y,Z Vertex 2 {m}
  7.97272565512697, -7.105427357601e-15, 0.762, !- X,Y,Z Vertex 3 {m}
  7.97272565512697, -7.105427357601e-15, 1.43684627811143; !- X,Y,Z Vertex 4 {m}

BuildingSurface:Detailed,
  SuperMarket DryStorage A  - Story ground Wall 4, !- Name
  Wall,                                   !- Surface Type
  ,                                       !- Construction Name
  Zone SuperMarket DryStorage A  - Story ground, !- Zone Name
  SuperMarket DryStorage A  - Story ground, !- Space Name
  Surface,                                !- Outside Boundary Condition
  SuperMarket Produce A  - Story ground Wall 1, !- Outside Boundary Condition Object
  NoSun,                                  !- Sun Exposure
  NoWind,                                 !- Wind Exposure
  ,                                       !- View Factor to Ground
  ,                                       !- Number of Vertices
  7.99812565512697, -7.105427357601e-15, 6.096, !- X,Y,Z Vertex 1 {m}
  7.99812565512697, -7.105427357601e-15, 0, !- X,Y,Z Vertex 2 {m}
  7.99812565512697, 4.57199999999999, 0,  !- X,Y,Z Vertex 3 {m}
  7.99812565512697, 4.57199999999999, 6.096; !- X,Y,Z Vertex 4 {m}

Zone,
  Zone SuperMarket DryStorage B  - Story ground, !- Name
  -0,                                     !- Direction of Relative North {deg}
  18.126445172857,                        !- X Origin {m}
  -21.8244543073497,                      !- Y Origin {m}
  0,                                      !- Z Origin {m}
  ,                                       !- Type
  1,                                      !- Multiplier
  ,                                       !- Ceiling Height {m}
  ,                                       !- Volume {m3}
  ,                                       !- Floor Area {m2}
  ,                                       !- Zone Inside Convection Algorithm
  ,                                       !- Zone Outside Convection Algorithm
  Yes;                                    !- Part of Total Floor Area

Space,
  SuperMarket DryStorage B  - Story ground, !- Name
  Zone SuperMarket DryStorage B  - Story ground, !- Zone Name
  ,                                       !- Ceiling Height {m}
  ,                                       !- Volume {m3}
  ,                                       !- Floor Area {m2}
  SuperMarket DryStorage;                 !- Space Type

BuildingSurface:Detailed,
  SuperMarket DryStorage B  - Story ground Floor 1, !- Name
  Floor,                                  !- Surface Type
  ,                                       !- Construction Name
  Zone SuperMarket DryStorage B  - Story ground, !- Zone Name
  SuperMarket DryStorage B  - Story ground, !- Space Name
  Ground,                                 !- Outside Boundary Condition
  ,                                       !- Outside Boundary Condition Object
  NoSun,                                  !- Sun Exposure
  NoWind,                                 !- Wind Exposure
  ,                                       !- View Factor to Ground
  ,                                       !- Number of Vertices
  -2.8421709430404e-14, -7.105427357601e-15, 0, !- X,Y,Z Vertex 1 {m}
  -2.8421709430404e-14, 43.6489086146994, 0, !- X,Y,Z Vertex 2 {m}
  7.99812565512697, 43.6489086146994, 0,  !- X,Y,Z Vertex 3 {m}
  7.99812565512697, -7.105427357601e-15, 0; !- X,Y,Z Vertex 4 {m}

BuildingSurface:Detailed,
  SuperMarket DryStorage B  - Story ground RoofCeiling 1, !- Name
  Roof,                                   !- Surface Type
  ,                                       !- Construction Name
  Zone SuperMarket DryStorage B  - Story ground, !- Zone Name
  SuperMarket DryStorage B  - Story ground, !- Space Name
  Outdoors,                               !- Outside Boundary Condition
  ,                                       !- Outside Boundary Condition Object
  SunExposed,                             !- Sun Exposure
  WindExposed,                            !- Wind Exposure
  ,                                       !- View Factor to Ground
  ,                                       !- Number of Vertices
  7.99812565512697, -7.105427357601e-15, 6.096, !- X,Y,Z Vertex 1 {m}
  7.99812565512697, 43.6489086146994, 6.096, !- X,Y,Z Vertex 2 {m}
  -2.8421709430404e-14, 43.6489086146994, 6.096, !- X,Y,Z Vertex 3 {m}
  -2.8421709430404e-14, -7.105427357601e-15, 6.096; !- X,Y,Z Vertex 4 {m}

BuildingSurface:Detailed,
  SuperMarket DryStorage B  - Story ground Wall 1, !- Name
  Wall,                                   !- Surface Type
  ,                                       !- Construction Name
  Zone SuperMarket DryStorage B  - Story ground, !- Zone Name
  SuperMarket DryStorage B  - Story ground, !- Space Name
  Surface,                                !- Outside Boundary Condition
  SuperMarket Deli B  - Story ground Wall 4, !- Outside Boundary Condition Object
  NoSun,                                  !- Sun Exposure
  NoWind,                                 !- Wind Exposure
  ,                                       !- View Factor to Ground
  ,                                       !- Number of Vertices
  1.06581410364015e-14, 43.6489086146994, 6.096, !- X,Y,Z Vertex 1 {m}
  1.06581410364015e-14, 43.6489086146994, 0, !- X,Y,Z Vertex 2 {m}
  1.06581410364015e-14, -7.105427357601e-15, 0, !- X,Y,Z Vertex 3 {m}
  1.06581410364015e-14, -7.105427357601e-15, 6.096; !- X,Y,Z Vertex 4 {m}

BuildingSurface:Detailed,
  SuperMarket DryStorage B  - Story ground Wall 2, !- Name
  Wall,                                   !- Surface Type
  ,                                       !- Construction Name
  Zone SuperMarket DryStorage B  - Story ground, !- Zone Name
  SuperMarket DryStorage B  - Story ground, !- Space Name
  Surface,                                !- Outside Boundary Condition
  SuperMarket DryStorage C  - Story ground Wall 4, !- Outside Boundary Condition Object
  NoSun,                                  !- Sun Exposure
  NoWind,                                 !- Wind Exposure
  ,                                       !- View Factor to Ground
  ,                                       !- Number of Vertices
  7.99812565512697, 43.6489086146994, 6.096, !- X,Y,Z Vertex 1 {m}
  7.99812565512697, 43.6489086146994, 0,  !- X,Y,Z Vertex 2 {m}
  -2.8421709430404e-14, 43.6489086146994, 0, !- X,Y,Z Vertex 3 {m}
  -2.8421709430404e-14, 43.6489086146994, 6.096; !- X,Y,Z Vertex 4 {m}

BuildingSurface:Detailed,
  SuperMarket DryStorage B  - Story ground Wall 3, !- Name
  Wall,                                   !- Surface Type
  ,                                       !- Construction Name
  Zone SuperMarket DryStorage B  - Story ground, !- Zone Name
  SuperMarket DryStorage B  - Story ground, !- Space Name
  Surface,                                !- Outside Boundary Condition
  SuperMarket DryStorage A  - Story ground Wall 2, !- Outside Boundary Condition Object
  NoSun,                                  !- Sun Exposure
  NoWind,                                 !- Wind Exposure
  ,                                       !- View Factor to Ground
  ,                                       !- Number of Vertices
  -2.8421709430404e-14, -1.06581410364015e-14, 6.096, !- X,Y,Z Vertex 1 {m}
  -2.8421709430404e-14, -1.06581410364015e-14, 0, !- X,Y,Z Vertex 2 {m}
  7.99812565512697, -1.06581410364015e-14, 0, !- X,Y,Z Vertex 3 {m}
  7.99812565512697, -1.06581410364015e-14, 6.096; !- X,Y,Z Vertex 4 {m}

BuildingSurface:Detailed,
  SuperMarket DryStorage B  - Story ground Wall 4, !- Name
  Wall,                                   !- Surface Type
  ,                                       !- Construction Name
  Zone SuperMarket DryStorage B  - Story ground, !- Zone Name
  SuperMarket DryStorage B  - Story ground, !- Space Name
  Surface,                                !- Outside Boundary Condition
  SuperMarket Produce B  - Story ground Wall 4, !- Outside Boundary Condition Object
  NoSun,                                  !- Sun Exposure
  NoWind,                                 !- Wind Exposure
  ,                                       !- View Factor to Ground
  ,                                       !- Number of Vertices
  7.99812565512697, -7.105427357601e-15, 6.096, !- X,Y,Z Vertex 1 {m}
  7.99812565512697, -7.105427357601e-15, 0, !- X,Y,Z Vertex 2 {m}
  7.99812565512697, 43.6489086146994, 0,  !- X,Y,Z Vertex 3 {m}
  7.99812565512697, 43.6489086146994, 6.096; !- X,Y,Z Vertex 4 {m}

Zone,
  Zone SuperMarket DryStorage C  - Story ground, !- Name
  -0,                                     !- Direction of Relative North {deg}
  18.126445172857,                        !- X Origin {m}
  21.8244543073497,                       !- Y Origin {m}
  0,                                      !- Z Origin {m}
  ,                                       !- Type
  1,                                      !- Multiplier
  ,                                       !- Ceiling Height {m}
  ,                                       !- Volume {m3}
  ,                                       !- Floor Area {m2}
  ,                                       !- Zone Inside Convection Algorithm
  ,                                       !- Zone Outside Convection Algorithm
  Yes;                                    !- Part of Total Floor Area

Space,
  SuperMarket DryStorage C  - Story ground, !- Name
  Zone SuperMarket DryStorage C  - Story ground, !- Zone Name
  ,                                       !- Ceiling Height {m}
  ,                                       !- Volume {m3}
  ,                                       !- Floor Area {m2}
  SuperMarket DryStorage;                 !- Space Type

BuildingSurface:Detailed,
  SuperMarket DryStorage C  - Story ground Floor 1, !- Name
  Floor,                                  !- Surface Type
  ,                                       !- Construction Name
  Zone SuperMarket DryStorage C  - Story ground, !- Zone Name
  SuperMarket DryStorage C  - Story ground, !- Space Name
  Ground,                                 !- Outside Boundary Condition
  ,                                       !- Outside Boundary Condition Object
  NoSun,                                  !- Sun Exposure
  NoWind,                                 !- Wind Exposure
  ,                                       !- View Factor to Ground
  ,                                       !- Number of Vertices
  -2.8421709430404e-14, 7.105427357601e-15, 0, !- X,Y,Z Vertex 1 {m}
  -2.8421709430404e-14, 4.57200000000001, 0, !- X,Y,Z Vertex 2 {m}
  7.99812565512697, 4.57200000000001, 0,  !- X,Y,Z Vertex 3 {m}
  7.99812565512697, 7.105427357601e-15, 0; !- X,Y,Z Vertex 4 {m}

BuildingSurface:Detailed,
  SuperMarket DryStorage C  - Story ground RoofCeiling 1, !- Name
  Roof,                                   !- Surface Type
  ,                                       !- Construction Name
  Zone SuperMarket DryStorage C  - Story ground, !- Zone Name
  SuperMarket DryStorage C  - Story ground, !- Space Name
  Outdoors,                               !- Outside Boundary Condition
  ,                                       !- Outside Boundary Condition Object
  SunExposed,                             !- Sun Exposure
  WindExposed,                            !- Wind Exposure
  ,                                       !- View Factor to Ground
  ,                                       !- Number of Vertices
  7.99812565512697, 7.105427357601e-15, 6.096, !- X,Y,Z Vertex 1 {m}
  7.99812565512697, 4.57200000000001, 6.096, !- X,Y,Z Vertex 2 {m}
  -2.8421709430404e-14, 4.57200000000001, 6.096, !- X,Y,Z Vertex 3 {m}
  -2.8421709430404e-14, 7.105427357601e-15, 6.096; !- X,Y,Z Vertex 4 {m}

BuildingSurface:Detailed,
  SuperMarket DryStorage C  - Story ground Wall 1, !- Name
  Wall,                                   !- Surface Type
  ,                                       !- Construction Name
  Zone SuperMarket DryStorage C  - Story ground, !- Zone Name
  SuperMarket DryStorage C  - Story ground, !- Space Name
  Surface,                                !- Outside Boundary Condition
  SuperMarket Produce C  - Story ground Wall 1, !- Outside Boundary Condition Object
  NoSun,                                  !- Sun Exposure
  NoWind,                                 !- Wind Exposure
  ,                                       !- View Factor to Ground
  ,                                       !- Number of Vertices
  7.99812565512697, 7.105427357601e-15, 6.096, !- X,Y,Z Vertex 1 {m}
  7.99812565512697, 7.105427357601e-15, 0, !- X,Y,Z Vertex 2 {m}
  7.99812565512697, 4.57200000000001, 0,  !- X,Y,Z Vertex 3 {m}
  7.99812565512697, 4.57200000000001, 6.096; !- X,Y,Z Vertex 4 {m}

BuildingSurface:Detailed,
  SuperMarket DryStorage C  - Story ground Wall 2, !- Name
  Wall,                                   !- Surface Type
  ,                                       !- Construction Name
  Zone SuperMarket DryStorage C  - Story ground, !- Zone Name
  SuperMarket DryStorage C  - Story ground, !- Space Name
  Surface,                                !- Outside Boundary Condition
  SuperMarket Deli C  - Story ground Wall 4, !- Outside Boundary Condition Object
  NoSun,                                  !- Sun Exposure
  NoWind,                                 !- Wind Exposure
  ,                                       !- View Factor to Ground
  ,                                       !- Number of Vertices
  1.06581410364015e-14, 4.57200000000001, 6.096, !- X,Y,Z Vertex 1 {m}
  1.06581410364015e-14, 4.57200000000001, 0, !- X,Y,Z Vertex 2 {m}
  1.06581410364015e-14, 7.105427357601e-15, 0, !- X,Y,Z Vertex 3 {m}
  1.06581410364015e-14, 7.105427357601e-15, 6.096; !- X,Y,Z Vertex 4 {m}

BuildingSurface:Detailed,
  SuperMarket DryStorage C  - Story ground Wall 3, !- Name
  Wall,                                   !- Surface Type
  ,                                       !- Construction Name
  Zone SuperMarket DryStorage C  - Story ground, !- Zone Name
  SuperMarket DryStorage C  - Story ground, !- Space Name
  Outdoors,                               !- Outside Boundary Condition
  ,                                       !- Outside Boundary Condition Object
  SunExposed,                             !- Sun Exposure
  WindExposed,                            !- Wind Exposure
  ,                                       !- View Factor to Ground
  ,                                       !- Number of Vertices
  -2.8421709430404e-14, 4.57200000000001, 6.096, !- X,Y,Z Vertex 1 {m}
  7.99812565512697, 4.57200000000001, 6.096, !- X,Y,Z Vertex 2 {m}
  7.99812565512697, 4.57200000000001, 0,  !- X,Y,Z Vertex 3 {m}
  -2.8421709430404e-14, 4.57200000000001, 0; !- X,Y,Z Vertex 4 {m}

FenestrationSurface:Detailed,
  SuperMarket DryStorage C  - Story ground Wall 3 FixedWindow 1, !- Name
  Window,                                 !- Surface Type
  ,                                       !- Construction Name
  SuperMarket DryStorage C  - Story ground Wall 3, !- Building Surface Name
  ,                                       !- Outside Boundary Condition Object
  ,                                       !- View Factor to Ground
  ,                                       !- Frame and Divider Name
  ,                                       !- Multiplier
  ,                                       !- Number of Vertices
  7.97272565512697, 4.57200000000001, 1.43684627811143, !- X,Y,Z Vertex 1 {m}
  7.97272565512697, 4.57200000000001, 0.762, !- X,Y,Z Vertex 2 {m}
  0.025399999999971, 4.57200000000001, 0.762, !- X,Y,Z Vertex 3 {m}
  0.025399999999971, 4.57200000000001, 1.43684627811143; !- X,Y,Z Vertex 4 {m}

BuildingSurface:Detailed,
  SuperMarket DryStorage C  - Story ground Wall 4, !- Name
  Wall,                                   !- Surface Type
  ,                                       !- Construction Name
  Zone SuperMarket DryStorage C  - Story ground, !- Zone Name
  SuperMarket DryStorage C  - Story ground, !- Space Name
  Surface,                                !- Outside Boundary Condition
  SuperMarket DryStorage B  - Story ground Wall 2, !- Outside Boundary Condition Object
  NoSun,                                  !- Sun Exposure
  NoWind,                                 !- Wind Exposure
  ,                                       !- View Factor to Ground
  ,                                       !- Number of Vertices
  -2.8421709430404e-14, 7.105427357601e-15, 6.096, !- X,Y,Z Vertex 1 {m}
  -2.8421709430404e-14, 7.105427357601e-15, 0, !- X,Y,Z Vertex 2 {m}
  7.99812565512697, 7.105427357601e-15, 0, !- X,Y,Z Vertex 3 {m}
  7.99812565512697, 7.105427357601e-15, 6.096; !- X,Y,Z Vertex 4 {m}

Zone,
  Zone SuperMarket Elec/MechRoom A  - Story ground, !- Name
  -0,                                     !- Direction of Relative North {deg}
  7.67344926714655,                       !- X Origin {m}
  -26.3964543073497,                      !- Y Origin {m}
  0,                                      !- Z Origin {m}
  ,                                       !- Type
  1,                                      !- Multiplier
  ,                                       !- Ceiling Height {m}
  ,                                       !- Volume {m3}
  ,                                       !- Floor Area {m2}
  ,                                       !- Zone Inside Convection Algorithm
  ,                                       !- Zone Outside Convection Algorithm
  Yes;                                    !- Part of Total Floor Area

Space,
  SuperMarket Elec/MechRoom A  - Story ground, !- Name
  Zone SuperMarket Elec/MechRoom A  - Story ground, !- Zone Name
  ,                                       !- Ceiling Height {m}
  ,                                       !- Volume {m3}
  ,                                       !- Floor Area {m2}
  SuperMarket Elec/MechRoom;              !- Space Type

SpaceList,
  SuperMarket Elec/MechRoom,              !- Name
  SuperMarket Elec/MechRoom C  - Story ground, !- Space Name 1
  SuperMarket Elec/MechRoom B  - Story ground, !- Space Name 2
  SuperMarket Elec/MechRoom A  - Story ground; !- Space Name 3

BuildingSurface:Detailed,
  SuperMarket Elec/MechRoom A  - Story ground Floor 1, !- Name
  Floor,                                  !- Surface Type
  ,                                       !- Construction Name
  Zone SuperMarket Elec/MechRoom A  - Story ground, !- Zone Name
  SuperMarket Elec/MechRoom A  - Story ground, !- Space Name
  Ground,                                 !- Outside Boundary Condition
  ,                                       !- Outside Boundary Condition Object
  NoSun,                                  !- Sun Exposure
  NoWind,                                 !- Wind Exposure
  ,                                       !- View Factor to Ground
  ,                                       !- Number of Vertices
  -2.66453525910038e-15, -7.105427357601e-15, 0, !- X,Y,Z Vertex 1 {m}
  -2.66453525910038e-15, 4.57199999999999, 0, !- X,Y,Z Vertex 2 {m}
  1.05321852686325, 4.57199999999999, 0,  !- X,Y,Z Vertex 3 {m}
  1.05321852686325, -7.105427357601e-15, 0; !- X,Y,Z Vertex 4 {m}

BuildingSurface:Detailed,
  SuperMarket Elec/MechRoom A  - Story ground RoofCeiling 1, !- Name
  Roof,                                   !- Surface Type
  ,                                       !- Construction Name
  Zone SuperMarket Elec/MechRoom A  - Story ground, !- Zone Name
  SuperMarket Elec/MechRoom A  - Story ground, !- Space Name
  Outdoors,                               !- Outside Boundary Condition
  ,                                       !- Outside Boundary Condition Object
  SunExposed,                             !- Sun Exposure
  WindExposed,                            !- Wind Exposure
  ,                                       !- View Factor to Ground
  ,                                       !- Number of Vertices
  1.05321852686325, -7.105427357601e-15, 6.096, !- X,Y,Z Vertex 1 {m}
  1.05321852686325, 4.57199999999999, 6.096, !- X,Y,Z Vertex 2 {m}
  -2.66453525910038e-15, 4.57199999999999, 6.096, !- X,Y,Z Vertex 3 {m}
  -2.66453525910038e-15, -7.105427357601e-15, 6.096; !- X,Y,Z Vertex 4 {m}

BuildingSurface:Detailed,
  SuperMarket Elec/MechRoom A  - Story ground Wall 1, !- Name
  Wall,                                   !- Surface Type
  ,                                       !- Construction Name
  Zone SuperMarket Elec/MechRoom A  - Story ground, !- Zone Name
  SuperMarket Elec/MechRoom A  - Story ground, !- Space Name
  Surface,                                !- Outside Boundary Condition
  SuperMarket Corridor A  - Story ground Wall 4, !- Outside Boundary Condition Object
  NoSun,                                  !- Sun Exposure
  NoWind,                                 !- Wind Exposure
  ,                                       !- View Factor to Ground
  ,                                       !- Number of Vertices
  -3.5527136788005e-15, 4.57199999999999, 6.096, !- X,Y,Z Vertex 1 {m}
  -3.5527136788005e-15, 4.57199999999999, 0, !- X,Y,Z Vertex 2 {m}
  -3.5527136788005e-15, -7.105427357601e-15, 0, !- X,Y,Z Vertex 3 {m}
  -3.5527136788005e-15, -7.105427357601e-15, 6.096; !- X,Y,Z Vertex 4 {m}

BuildingSurface:Detailed,
  SuperMarket Elec/MechRoom A  - Story ground Wall 2, !- Name
  Wall,                                   !- Surface Type
  ,                                       !- Construction Name
  Zone SuperMarket Elec/MechRoom A  - Story ground, !- Zone Name
  SuperMarket Elec/MechRoom A  - Story ground, !- Space Name
  Surface,                                !- Outside Boundary Condition
  SuperMarket Elec/MechRoom B  - Story ground Wall 3, !- Outside Boundary Condition Object
  NoSun,                                  !- Sun Exposure
  NoWind,                                 !- Wind Exposure
  ,                                       !- View Factor to Ground
  ,                                       !- Number of Vertices
  1.05321852686325, 4.57199999999999, 6.096, !- X,Y,Z Vertex 1 {m}
  1.05321852686325, 4.57199999999999, 0,  !- X,Y,Z Vertex 2 {m}
  -2.66453525910038e-15, 4.57199999999999, 0, !- X,Y,Z Vertex 3 {m}
  -2.66453525910038e-15, 4.57199999999999, 6.096; !- X,Y,Z Vertex 4 {m}

BuildingSurface:Detailed,
  SuperMarket Elec/MechRoom A  - Story ground Wall 3, !- Name
  Wall,                                   !- Surface Type
  ,                                       !- Construction Name
  Zone SuperMarket Elec/MechRoom A  - Story ground, !- Zone Name
  SuperMarket Elec/MechRoom A  - Story ground, !- Space Name
  Outdoors,                               !- Outside Boundary Condition
  ,                                       !- Outside Boundary Condition Object
  SunExposed,                             !- Sun Exposure
  WindExposed,                            !- Wind Exposure
  ,                                       !- View Factor to Ground
  ,                                       !- Number of Vertices
  1.05321852686325, -7.105427357601e-15, 6.096, !- X,Y,Z Vertex 1 {m}
  -2.66453525910038e-15, -7.105427357601e-15, 6.096, !- X,Y,Z Vertex 2 {m}
  -2.66453525910038e-15, -7.105427357601e-15, 0, !- X,Y,Z Vertex 3 {m}
  1.05321852686325, -7.105427357601e-15, 0; !- X,Y,Z Vertex 4 {m}

FenestrationSurface:Detailed,
  SuperMarket Elec/MechRoom A  - Story ground Wall 3 FixedWindow 1, !- Name
  Window,                                 !- Surface Type
  ,                                       !- Construction Name
  SuperMarket Elec/MechRoom A  - Story ground Wall 3, !- Building Surface Name
  ,                                       !- Outside Boundary Condition Object
  ,                                       !- View Factor to Ground
  ,                                       !- Frame and Divider Name
  ,                                       !- Multiplier
  ,                                       !- Number of Vertices
  0.0253999999999973, -7.105427357601e-15, 1.46654226098892, !- X,Y,Z Vertex 1 {m}
  0.0253999999999973, -7.105427357601e-15, 0.762, !- X,Y,Z Vertex 2 {m}
  1.02781852686325, -7.105427357601e-15, 0.762, !- X,Y,Z Vertex 3 {m}
  1.02781852686325, -7.105427357601e-15, 1.46654226098892; !- X,Y,Z Vertex 4 {m}

BuildingSurface:Detailed,
  SuperMarket Elec/MechRoom A  - Story ground Wall 4, !- Name
  Wall,                                   !- Surface Type
  ,                                       !- Construction Name
  Zone SuperMarket Elec/MechRoom A  - Story ground, !- Zone Name
  SuperMarket Elec/MechRoom A  - Story ground, !- Space Name
  Surface,                                !- Outside Boundary Condition
  SuperMarket Restroom A  - Story ground Wall 1, !- Outside Boundary Condition Object
  NoSun,                                  !- Sun Exposure
  NoWind,                                 !- Wind Exposure
  ,                                       !- View Factor to Ground
  ,                                       !- Number of Vertices
  1.05321852686325, -7.105427357601e-15, 6.096, !- X,Y,Z Vertex 1 {m}
  1.05321852686325, -7.105427357601e-15, 0, !- X,Y,Z Vertex 2 {m}
  1.05321852686325, 4.57199999999999, 0,  !- X,Y,Z Vertex 3 {m}
  1.05321852686325, 4.57199999999999, 6.096; !- X,Y,Z Vertex 4 {m}

Zone,
  Zone SuperMarket Elec/MechRoom B  - Story ground, !- Name
  -0,                                     !- Direction of Relative North {deg}
  7.67344926714655,                       !- X Origin {m}
  -21.8244543073497,                      !- Y Origin {m}
  0,                                      !- Z Origin {m}
  ,                                       !- Type
  1,                                      !- Multiplier
  ,                                       !- Ceiling Height {m}
  ,                                       !- Volume {m3}
  ,                                       !- Floor Area {m2}
  ,                                       !- Zone Inside Convection Algorithm
  ,                                       !- Zone Outside Convection Algorithm
  Yes;                                    !- Part of Total Floor Area

Space,
  SuperMarket Elec/MechRoom B  - Story ground, !- Name
  Zone SuperMarket Elec/MechRoom B  - Story ground, !- Zone Name
  ,                                       !- Ceiling Height {m}
  ,                                       !- Volume {m3}
  ,                                       !- Floor Area {m2}
  SuperMarket Elec/MechRoom;              !- Space Type

BuildingSurface:Detailed,
  SuperMarket Elec/MechRoom B  - Story ground Floor 1, !- Name
  Floor,                                  !- Surface Type
  ,                                       !- Construction Name
  Zone SuperMarket Elec/MechRoom B  - Story ground, !- Zone Name
  SuperMarket Elec/MechRoom B  - Story ground, !- Space Name
  Ground,                                 !- Outside Boundary Condition
  ,                                       !- Outside Boundary Condition Object
  NoSun,                                  !- Sun Exposure
  NoWind,                                 !- Wind Exposure
  ,                                       !- View Factor to Ground
  ,                                       !- Number of Vertices
  -2.66453525910038e-15, -7.105427357601e-15, 0, !- X,Y,Z Vertex 1 {m}
  -2.66453525910038e-15, 43.6489086146994, 0, !- X,Y,Z Vertex 2 {m}
  1.05321852686325, 43.6489086146994, 0,  !- X,Y,Z Vertex 3 {m}
  1.05321852686325, -7.105427357601e-15, 0; !- X,Y,Z Vertex 4 {m}

BuildingSurface:Detailed,
  SuperMarket Elec/MechRoom B  - Story ground RoofCeiling 1, !- Name
  Roof,                                   !- Surface Type
  ,                                       !- Construction Name
  Zone SuperMarket Elec/MechRoom B  - Story ground, !- Zone Name
  SuperMarket Elec/MechRoom B  - Story ground, !- Space Name
  Outdoors,                               !- Outside Boundary Condition
  ,                                       !- Outside Boundary Condition Object
  SunExposed,                             !- Sun Exposure
  WindExposed,                            !- Wind Exposure
  ,                                       !- View Factor to Ground
  ,                                       !- Number of Vertices
  1.05321852686325, -7.105427357601e-15, 6.096, !- X,Y,Z Vertex 1 {m}
  1.05321852686325, 43.6489086146994, 6.096, !- X,Y,Z Vertex 2 {m}
  -2.66453525910038e-15, 43.6489086146994, 6.096, !- X,Y,Z Vertex 3 {m}
  -2.66453525910038e-15, -7.105427357601e-15, 6.096; !- X,Y,Z Vertex 4 {m}

BuildingSurface:Detailed,
  SuperMarket Elec/MechRoom B  - Story ground Wall 1, !- Name
  Wall,                                   !- Surface Type
  ,                                       !- Construction Name
  Zone SuperMarket Elec/MechRoom B  - Story ground, !- Zone Name
  SuperMarket Elec/MechRoom B  - Story ground, !- Space Name
  Surface,                                !- Outside Boundary Condition
  SuperMarket Corridor B  - Story ground Wall 4, !- Outside Boundary Condition Object
  NoSun,                                  !- Sun Exposure
  NoWind,                                 !- Wind Exposure
  ,                                       !- View Factor to Ground
  ,                                       !- Number of Vertices
  -3.5527136788005e-15, 43.6489086146994, 6.096, !- X,Y,Z Vertex 1 {m}
  -3.5527136788005e-15, 43.6489086146994, 0, !- X,Y,Z Vertex 2 {m}
  -3.5527136788005e-15, -7.105427357601e-15, 0, !- X,Y,Z Vertex 3 {m}
  -3.5527136788005e-15, -7.105427357601e-15, 6.096; !- X,Y,Z Vertex 4 {m}

BuildingSurface:Detailed,
  SuperMarket Elec/MechRoom B  - Story ground Wall 2, !- Name
  Wall,                                   !- Surface Type
  ,                                       !- Construction Name
  Zone SuperMarket Elec/MechRoom B  - Story ground, !- Zone Name
  SuperMarket Elec/MechRoom B  - Story ground, !- Space Name
  Surface,                                !- Outside Boundary Condition
  SuperMarket Elec/MechRoom C  - Story ground Wall 3, !- Outside Boundary Condition Object
  NoSun,                                  !- Sun Exposure
  NoWind,                                 !- Wind Exposure
  ,                                       !- View Factor to Ground
  ,                                       !- Number of Vertices
  1.05321852686325, 43.6489086146994, 6.096, !- X,Y,Z Vertex 1 {m}
  1.05321852686325, 43.6489086146994, 0,  !- X,Y,Z Vertex 2 {m}
  -2.66453525910038e-15, 43.6489086146994, 0, !- X,Y,Z Vertex 3 {m}
  -2.66453525910038e-15, 43.6489086146994, 6.096; !- X,Y,Z Vertex 4 {m}

BuildingSurface:Detailed,
  SuperMarket Elec/MechRoom B  - Story ground Wall 3, !- Name
  Wall,                                   !- Surface Type
  ,                                       !- Construction Name
  Zone SuperMarket Elec/MechRoom B  - Story ground, !- Zone Name
  SuperMarket Elec/MechRoom B  - Story ground, !- Space Name
  Surface,                                !- Outside Boundary Condition
  SuperMarket Elec/MechRoom A  - Story ground Wall 2, !- Outside Boundary Condition Object
  NoSun,                                  !- Sun Exposure
  NoWind,                                 !- Wind Exposure
  ,                                       !- View Factor to Ground
  ,                                       !- Number of Vertices
  -2.66453525910038e-15, -1.06581410364015e-14, 6.096, !- X,Y,Z Vertex 1 {m}
  -2.66453525910038e-15, -1.06581410364015e-14, 0, !- X,Y,Z Vertex 2 {m}
  1.05321852686325, -1.06581410364015e-14, 0, !- X,Y,Z Vertex 3 {m}
  1.05321852686325, -1.06581410364015e-14, 6.096; !- X,Y,Z Vertex 4 {m}

BuildingSurface:Detailed,
  SuperMarket Elec/MechRoom B  - Story ground Wall 4, !- Name
  Wall,                                   !- Surface Type
  ,                                       !- Construction Name
  Zone SuperMarket Elec/MechRoom B  - Story ground, !- Zone Name
  SuperMarket Elec/MechRoom B  - Story ground, !- Space Name
  Surface,                                !- Outside Boundary Condition
  SuperMarket Restroom B  - Story ground Wall 1, !- Outside Boundary Condition Object
  NoSun,                                  !- Sun Exposure
  NoWind,                                 !- Wind Exposure
  ,                                       !- View Factor to Ground
  ,                                       !- Number of Vertices
  1.05321852686325, -7.105427357601e-15, 6.096, !- X,Y,Z Vertex 1 {m}
  1.05321852686325, -7.105427357601e-15, 0, !- X,Y,Z Vertex 2 {m}
  1.05321852686325, 43.6489086146994, 0,  !- X,Y,Z Vertex 3 {m}
  1.05321852686325, 43.6489086146994, 6.096; !- X,Y,Z Vertex 4 {m}

Zone,
  Zone SuperMarket Elec/MechRoom C  - Story ground, !- Name
  -0,                                     !- Direction of Relative North {deg}
  7.67344926714655,                       !- X Origin {m}
  21.8244543073497,                       !- Y Origin {m}
  0,                                      !- Z Origin {m}
  ,                                       !- Type
  1,                                      !- Multiplier
  ,                                       !- Ceiling Height {m}
  ,                                       !- Volume {m3}
  ,                                       !- Floor Area {m2}
  ,                                       !- Zone Inside Convection Algorithm
  ,                                       !- Zone Outside Convection Algorithm
  Yes;                                    !- Part of Total Floor Area

Space,
  SuperMarket Elec/MechRoom C  - Story ground, !- Name
  Zone SuperMarket Elec/MechRoom C  - Story ground, !- Zone Name
  ,                                       !- Ceiling Height {m}
  ,                                       !- Volume {m3}
  ,                                       !- Floor Area {m2}
  SuperMarket Elec/MechRoom;              !- Space Type

BuildingSurface:Detailed,
  SuperMarket Elec/MechRoom C  - Story ground Floor 1, !- Name
  Floor,                                  !- Surface Type
  ,                                       !- Construction Name
  Zone SuperMarket Elec/MechRoom C  - Story ground, !- Zone Name
  SuperMarket Elec/MechRoom C  - Story ground, !- Space Name
  Ground,                                 !- Outside Boundary Condition
  ,                                       !- Outside Boundary Condition Object
  NoSun,                                  !- Sun Exposure
  NoWind,                                 !- Wind Exposure
  ,                                       !- View Factor to Ground
  ,                                       !- Number of Vertices
  -2.66453525910038e-15, 7.105427357601e-15, 0, !- X,Y,Z Vertex 1 {m}
  -2.66453525910038e-15, 4.57200000000001, 0, !- X,Y,Z Vertex 2 {m}
  1.05321852686325, 4.57200000000001, 0,  !- X,Y,Z Vertex 3 {m}
  1.05321852686325, 7.105427357601e-15, 0; !- X,Y,Z Vertex 4 {m}

BuildingSurface:Detailed,
  SuperMarket Elec/MechRoom C  - Story ground RoofCeiling 1, !- Name
  Roof,                                   !- Surface Type
  ,                                       !- Construction Name
  Zone SuperMarket Elec/MechRoom C  - Story ground, !- Zone Name
  SuperMarket Elec/MechRoom C  - Story ground, !- Space Name
  Outdoors,                               !- Outside Boundary Condition
  ,                                       !- Outside Boundary Condition Object
  SunExposed,                             !- Sun Exposure
  WindExposed,                            !- Wind Exposure
  ,                                       !- View Factor to Ground
  ,                                       !- Number of Vertices
  1.05321852686325, 7.105427357601e-15, 6.096, !- X,Y,Z Vertex 1 {m}
  1.05321852686325, 4.57200000000001, 6.096, !- X,Y,Z Vertex 2 {m}
  -2.66453525910038e-15, 4.57200000000001, 6.096, !- X,Y,Z Vertex 3 {m}
  -2.66453525910038e-15, 7.105427357601e-15, 6.096; !- X,Y,Z Vertex 4 {m}

BuildingSurface:Detailed,
  SuperMarket Elec/MechRoom C  - Story ground Wall 1, !- Name
  Wall,                                   !- Surface Type
  ,                                       !- Construction Name
  Zone SuperMarket Elec/MechRoom C  - Story ground, !- Zone Name
  SuperMarket Elec/MechRoom C  - Story ground, !- Space Name
  Surface,                                !- Outside Boundary Condition
  SuperMarket Corridor C  - Story ground Wall 4, !- Outside Boundary Condition Object
  NoSun,                                  !- Sun Exposure
  NoWind,                                 !- Wind Exposure
  ,                                       !- View Factor to Ground
  ,                                       !- Number of Vertices
  -3.5527136788005e-15, 4.57200000000001, 6.096, !- X,Y,Z Vertex 1 {m}
  -3.5527136788005e-15, 4.57200000000001, 0, !- X,Y,Z Vertex 2 {m}
  -3.5527136788005e-15, 7.105427357601e-15, 0, !- X,Y,Z Vertex 3 {m}
  -3.5527136788005e-15, 7.105427357601e-15, 6.096; !- X,Y,Z Vertex 4 {m}

BuildingSurface:Detailed,
  SuperMarket Elec/MechRoom C  - Story ground Wall 2, !- Name
  Wall,                                   !- Surface Type
  ,                                       !- Construction Name
  Zone SuperMarket Elec/MechRoom C  - Story ground, !- Zone Name
  SuperMarket Elec/MechRoom C  - Story ground, !- Space Name
  Outdoors,                               !- Outside Boundary Condition
  ,                                       !- Outside Boundary Condition Object
  SunExposed,                             !- Sun Exposure
  WindExposed,                            !- Wind Exposure
  ,                                       !- View Factor to Ground
  ,                                       !- Number of Vertices
  -2.66453525910038e-15, 4.57200000000001, 6.096, !- X,Y,Z Vertex 1 {m}
  1.05321852686325, 4.57200000000001, 6.096, !- X,Y,Z Vertex 2 {m}
  1.05321852686325, 4.57200000000001, 0,  !- X,Y,Z Vertex 3 {m}
  -2.66453525910038e-15, 4.57200000000001, 0; !- X,Y,Z Vertex 4 {m}

FenestrationSurface:Detailed,
  SuperMarket Elec/MechRoom C  - Story ground Wall 2 FixedWindow 1, !- Name
  Window,                                 !- Surface Type
  ,                                       !- Construction Name
  SuperMarket Elec/MechRoom C  - Story ground Wall 2, !- Building Surface Name
  ,                                       !- Outside Boundary Condition Object
  ,                                       !- View Factor to Ground
  ,                                       !- Frame and Divider Name
  ,                                       !- Multiplier
  ,                                       !- Number of Vertices
  1.02781852686325, 4.57200000000001, 1.46654226098892, !- X,Y,Z Vertex 1 {m}
  1.02781852686325, 4.57200000000001, 0.762, !- X,Y,Z Vertex 2 {m}
  0.0253999999999972, 4.57200000000001, 0.762, !- X,Y,Z Vertex 3 {m}
  0.0253999999999972, 4.57200000000001, 1.46654226098892; !- X,Y,Z Vertex 4 {m}

BuildingSurface:Detailed,
  SuperMarket Elec/MechRoom C  - Story ground Wall 3, !- Name
  Wall,                                   !- Surface Type
  ,                                       !- Construction Name
  Zone SuperMarket Elec/MechRoom C  - Story ground, !- Zone Name
  SuperMarket Elec/MechRoom C  - Story ground, !- Space Name
  Surface,                                !- Outside Boundary Condition
  SuperMarket Elec/MechRoom B  - Story ground Wall 2, !- Outside Boundary Condition Object
  NoSun,                                  !- Sun Exposure
  NoWind,                                 !- Wind Exposure
  ,                                       !- View Factor to Ground
  ,                                       !- Number of Vertices
  -2.66453525910038e-15, 7.105427357601e-15, 6.096, !- X,Y,Z Vertex 1 {m}
  -2.66453525910038e-15, 7.105427357601e-15, 0, !- X,Y,Z Vertex 2 {m}
  1.05321852686325, 7.105427357601e-15, 0, !- X,Y,Z Vertex 3 {m}
  1.05321852686325, 7.105427357601e-15, 6.096; !- X,Y,Z Vertex 4 {m}

BuildingSurface:Detailed,
  SuperMarket Elec/MechRoom C  - Story ground Wall 4, !- Name
  Wall,                                   !- Surface Type
  ,                                       !- Construction Name
  Zone SuperMarket Elec/MechRoom C  - Story ground, !- Zone Name
  SuperMarket Elec/MechRoom C  - Story ground, !- Space Name
  Surface,                                !- Outside Boundary Condition
  SuperMarket Restroom C  - Story ground Wall 1, !- Outside Boundary Condition Object
  NoSun,                                  !- Sun Exposure
  NoWind,                                 !- Wind Exposure
  ,                                       !- View Factor to Ground
  ,                                       !- Number of Vertices
  1.05321852686325, 7.105427357601e-15, 6.096, !- X,Y,Z Vertex 1 {m}
  1.05321852686325, 7.105427357601e-15, 0, !- X,Y,Z Vertex 2 {m}
  1.05321852686325, 4.57200000000001, 0,  !- X,Y,Z Vertex 3 {m}
  1.05321852686325, 4.57200000000001, 6.096; !- X,Y,Z Vertex 4 {m}

Zone,
  Zone SuperMarket Meeting A  - Story ground, !- Name
  -0,                                     !- Direction of Relative North {deg}
  5.86001285623163,                       !- X Origin {m}
  -26.3964543073497,                      !- Y Origin {m}
  0,                                      !- Z Origin {m}
  ,                                       !- Type
  1,                                      !- Multiplier
  ,                                       !- Ceiling Height {m}
  ,                                       !- Volume {m3}
  ,                                       !- Floor Area {m2}
  ,                                       !- Zone Inside Convection Algorithm
  ,                                       !- Zone Outside Convection Algorithm
  Yes;                                    !- Part of Total Floor Area

Space,
  SuperMarket Meeting A  - Story ground,  !- Name
  Zone SuperMarket Meeting A  - Story ground, !- Zone Name
  ,                                       !- Ceiling Height {m}
  ,                                       !- Volume {m3}
  ,                                       !- Floor Area {m2}
  SuperMarket Meeting;                    !- Space Type

SpaceList,
  SuperMarket Meeting,                    !- Name
  SuperMarket Meeting B  - Story ground,  !- Space Name 1
  SuperMarket Meeting C  - Story ground,  !- Space Name 2
  SuperMarket Meeting A  - Story ground;  !- Space Name 3

BuildingSurface:Detailed,
  SuperMarket Meeting A  - Story ground Floor 1, !- Name
  Floor,                                  !- Surface Type
  ,                                       !- Construction Name
  Zone SuperMarket Meeting A  - Story ground, !- Zone Name
  SuperMarket Meeting A  - Story ground,  !- Space Name
  Ground,                                 !- Outside Boundary Condition
  ,                                       !- Outside Boundary Condition Object
  NoSun,                                  !- Sun Exposure
  NoWind,                                 !- Wind Exposure
  ,                                       !- View Factor to Ground
  ,                                       !- Number of Vertices
  8.88178419700125e-16, -7.105427357601e-15, 0, !- X,Y,Z Vertex 1 {m}
  8.88178419700125e-16, 4.57199999999999, 0, !- X,Y,Z Vertex 2 {m}
  0.879001928434741, 4.57199999999999, 0, !- X,Y,Z Vertex 3 {m}
  0.879001928434741, -7.105427357601e-15, 0; !- X,Y,Z Vertex 4 {m}

BuildingSurface:Detailed,
  SuperMarket Meeting A  - Story ground RoofCeiling 1, !- Name
  Roof,                                   !- Surface Type
  ,                                       !- Construction Name
  Zone SuperMarket Meeting A  - Story ground, !- Zone Name
  SuperMarket Meeting A  - Story ground,  !- Space Name
  Outdoors,                               !- Outside Boundary Condition
  ,                                       !- Outside Boundary Condition Object
  SunExposed,                             !- Sun Exposure
  WindExposed,                            !- Wind Exposure
  ,                                       !- View Factor to Ground
  ,                                       !- Number of Vertices
  0.879001928434741, -7.105427357601e-15, 6.096, !- X,Y,Z Vertex 1 {m}
  0.879001928434741, 4.57199999999999, 6.096, !- X,Y,Z Vertex 2 {m}
  8.88178419700125e-16, 4.57199999999999, 6.096, !- X,Y,Z Vertex 3 {m}
  8.88178419700125e-16, -7.105427357601e-15, 6.096; !- X,Y,Z Vertex 4 {m}

BuildingSurface:Detailed,
  SuperMarket Meeting A  - Story ground Wall 1, !- Name
  Wall,                                   !- Surface Type
  ,                                       !- Construction Name
  Zone SuperMarket Meeting A  - Story ground, !- Zone Name
  SuperMarket Meeting A  - Story ground,  !- Space Name
  Surface,                                !- Outside Boundary Condition
  SuperMarket Dining A  - Story ground Wall 4, !- Outside Boundary Condition Object
  NoSun,                                  !- Sun Exposure
  NoWind,                                 !- Wind Exposure
  ,                                       !- View Factor to Ground
  ,                                       !- Number of Vertices
  8.88178419700125e-16, 4.57199999999999, 6.096, !- X,Y,Z Vertex 1 {m}
  8.88178419700125e-16, 4.57199999999999, 0, !- X,Y,Z Vertex 2 {m}
  8.88178419700125e-16, -7.105427357601e-15, 0, !- X,Y,Z Vertex 3 {m}
  8.88178419700125e-16, -7.105427357601e-15, 6.096; !- X,Y,Z Vertex 4 {m}

BuildingSurface:Detailed,
  SuperMarket Meeting A  - Story ground Wall 2, !- Name
  Wall,                                   !- Surface Type
  ,                                       !- Construction Name
  Zone SuperMarket Meeting A  - Story ground, !- Zone Name
  SuperMarket Meeting A  - Story ground,  !- Space Name
  Surface,                                !- Outside Boundary Condition
  SuperMarket Meeting B  - Story ground Wall 3, !- Outside Boundary Condition Object
  NoSun,                                  !- Sun Exposure
  NoWind,                                 !- Wind Exposure
  ,                                       !- View Factor to Ground
  ,                                       !- Number of Vertices
  0.879001928434741, 4.57199999999999, 6.096, !- X,Y,Z Vertex 1 {m}
  0.879001928434741, 4.57199999999999, 0, !- X,Y,Z Vertex 2 {m}
  8.88178419700125e-16, 4.57199999999999, 0, !- X,Y,Z Vertex 3 {m}
  8.88178419700125e-16, 4.57199999999999, 6.096; !- X,Y,Z Vertex 4 {m}

BuildingSurface:Detailed,
  SuperMarket Meeting A  - Story ground Wall 3, !- Name
  Wall,                                   !- Surface Type
  ,                                       !- Construction Name
  Zone SuperMarket Meeting A  - Story ground, !- Zone Name
  SuperMarket Meeting A  - Story ground,  !- Space Name
  Outdoors,                               !- Outside Boundary Condition
  ,                                       !- Outside Boundary Condition Object
  SunExposed,                             !- Sun Exposure
  WindExposed,                            !- Wind Exposure
  ,                                       !- View Factor to Ground
  ,                                       !- Number of Vertices
  0.879001928434741, -7.105427357601e-15, 6.096, !- X,Y,Z Vertex 1 {m}
  8.88178419700125e-16, -7.105427357601e-15, 6.096, !- X,Y,Z Vertex 2 {m}
  8.88178419700125e-16, -7.105427357601e-15, 0, !- X,Y,Z Vertex 3 {m}
  0.879001928434741, -7.105427357601e-15, 0; !- X,Y,Z Vertex 4 {m}

FenestrationSurface:Detailed,
  SuperMarket Meeting A  - Story ground Wall 3 FixedWindow 1, !- Name
  Window,                                 !- Surface Type
  ,                                       !- Construction Name
  SuperMarket Meeting A  - Story ground Wall 3, !- Building Surface Name
  ,                                       !- Outside Boundary Condition Object
  ,                                       !- View Factor to Ground
  ,                                       !- Frame and Divider Name
  ,                                       !- Multiplier
  ,                                       !- Number of Vertices
  0.0254000000000009, -7.105427357601e-15, 1.47369060695763, !- X,Y,Z Vertex 1 {m}
  0.0254000000000009, -7.105427357601e-15, 0.762, !- X,Y,Z Vertex 2 {m}
  0.853601928434741, -7.105427357601e-15, 0.762, !- X,Y,Z Vertex 3 {m}
  0.853601928434741, -7.105427357601e-15, 1.47369060695763; !- X,Y,Z Vertex 4 {m}

BuildingSurface:Detailed,
  SuperMarket Meeting A  - Story ground Wall 4, !- Name
  Wall,                                   !- Surface Type
  ,                                       !- Construction Name
  Zone SuperMarket Meeting A  - Story ground, !- Zone Name
  SuperMarket Meeting A  - Story ground,  !- Space Name
  Surface,                                !- Outside Boundary Condition
  SuperMarket Corridor A  - Story ground Wall 1, !- Outside Boundary Condition Object
  NoSun,                                  !- Sun Exposure
  NoWind,                                 !- Wind Exposure
  ,                                       !- View Factor to Ground
  ,                                       !- Number of Vertices
  0.879001928434741, -7.105427357601e-15, 6.096, !- X,Y,Z Vertex 1 {m}
  0.879001928434741, -7.105427357601e-15, 0, !- X,Y,Z Vertex 2 {m}
  0.879001928434741, 4.57199999999999, 0, !- X,Y,Z Vertex 3 {m}
  0.879001928434741, 4.57199999999999, 6.096; !- X,Y,Z Vertex 4 {m}

Zone,
  Zone SuperMarket Meeting B  - Story ground, !- Name
  -0,                                     !- Direction of Relative North {deg}
  5.86001285623163,                       !- X Origin {m}
  -21.8244543073497,                      !- Y Origin {m}
  0,                                      !- Z Origin {m}
  ,                                       !- Type
  1,                                      !- Multiplier
  ,                                       !- Ceiling Height {m}
  ,                                       !- Volume {m3}
  ,                                       !- Floor Area {m2}
  ,                                       !- Zone Inside Convection Algorithm
  ,                                       !- Zone Outside Convection Algorithm
  Yes;                                    !- Part of Total Floor Area

Space,
  SuperMarket Meeting B  - Story ground,  !- Name
  Zone SuperMarket Meeting B  - Story ground, !- Zone Name
  ,                                       !- Ceiling Height {m}
  ,                                       !- Volume {m3}
  ,                                       !- Floor Area {m2}
  SuperMarket Meeting;                    !- Space Type

BuildingSurface:Detailed,
  SuperMarket Meeting B  - Story ground Floor 1, !- Name
  Floor,                                  !- Surface Type
  ,                                       !- Construction Name
  Zone SuperMarket Meeting B  - Story ground, !- Zone Name
  SuperMarket Meeting B  - Story ground,  !- Space Name
  Ground,                                 !- Outside Boundary Condition
  ,                                       !- Outside Boundary Condition Object
  NoSun,                                  !- Sun Exposure
  NoWind,                                 !- Wind Exposure
  ,                                       !- View Factor to Ground
  ,                                       !- Number of Vertices
  8.88178419700125e-16, -7.105427357601e-15, 0, !- X,Y,Z Vertex 1 {m}
  8.88178419700125e-16, 43.6489086146994, 0, !- X,Y,Z Vertex 2 {m}
  0.879001928434741, 43.6489086146994, 0, !- X,Y,Z Vertex 3 {m}
  0.879001928434741, -7.105427357601e-15, 0; !- X,Y,Z Vertex 4 {m}

BuildingSurface:Detailed,
  SuperMarket Meeting B  - Story ground RoofCeiling 1, !- Name
  Roof,                                   !- Surface Type
  ,                                       !- Construction Name
  Zone SuperMarket Meeting B  - Story ground, !- Zone Name
  SuperMarket Meeting B  - Story ground,  !- Space Name
  Outdoors,                               !- Outside Boundary Condition
  ,                                       !- Outside Boundary Condition Object
  SunExposed,                             !- Sun Exposure
  WindExposed,                            !- Wind Exposure
  ,                                       !- View Factor to Ground
  ,                                       !- Number of Vertices
  0.879001928434741, -7.105427357601e-15, 6.096, !- X,Y,Z Vertex 1 {m}
  0.879001928434741, 43.6489086146994, 6.096, !- X,Y,Z Vertex 2 {m}
  8.88178419700125e-16, 43.6489086146994, 6.096, !- X,Y,Z Vertex 3 {m}
  8.88178419700125e-16, -7.105427357601e-15, 6.096; !- X,Y,Z Vertex 4 {m}

BuildingSurface:Detailed,
  SuperMarket Meeting B  - Story ground Wall 1, !- Name
  Wall,                                   !- Surface Type
  ,                                       !- Construction Name
  Zone SuperMarket Meeting B  - Story ground, !- Zone Name
  SuperMarket Meeting B  - Story ground,  !- Space Name
  Surface,                                !- Outside Boundary Condition
  SuperMarket Dining B  - Story ground Wall 4, !- Outside Boundary Condition Object
  NoSun,                                  !- Sun Exposure
  NoWind,                                 !- Wind Exposure
  ,                                       !- View Factor to Ground
  ,                                       !- Number of Vertices
  8.88178419700125e-16, 43.6489086146994, 6.096, !- X,Y,Z Vertex 1 {m}
  8.88178419700125e-16, 43.6489086146994, 0, !- X,Y,Z Vertex 2 {m}
  8.88178419700125e-16, -7.105427357601e-15, 0, !- X,Y,Z Vertex 3 {m}
  8.88178419700125e-16, -7.105427357601e-15, 6.096; !- X,Y,Z Vertex 4 {m}

BuildingSurface:Detailed,
  SuperMarket Meeting B  - Story ground Wall 2, !- Name
  Wall,                                   !- Surface Type
  ,                                       !- Construction Name
  Zone SuperMarket Meeting B  - Story ground, !- Zone Name
  SuperMarket Meeting B  - Story ground,  !- Space Name
  Surface,                                !- Outside Boundary Condition
  SuperMarket Meeting C  - Story ground Wall 3, !- Outside Boundary Condition Object
  NoSun,                                  !- Sun Exposure
  NoWind,                                 !- Wind Exposure
  ,                                       !- View Factor to Ground
  ,                                       !- Number of Vertices
  0.879001928434741, 43.6489086146994, 6.096, !- X,Y,Z Vertex 1 {m}
  0.879001928434741, 43.6489086146994, 0, !- X,Y,Z Vertex 2 {m}
  8.88178419700125e-16, 43.6489086146994, 0, !- X,Y,Z Vertex 3 {m}
  8.88178419700125e-16, 43.6489086146994, 6.096; !- X,Y,Z Vertex 4 {m}

BuildingSurface:Detailed,
  SuperMarket Meeting B  - Story ground Wall 3, !- Name
  Wall,                                   !- Surface Type
  ,                                       !- Construction Name
  Zone SuperMarket Meeting B  - Story ground, !- Zone Name
  SuperMarket Meeting B  - Story ground,  !- Space Name
  Surface,                                !- Outside Boundary Condition
  SuperMarket Meeting A  - Story ground Wall 2, !- Outside Boundary Condition Object
  NoSun,                                  !- Sun Exposure
  NoWind,                                 !- Wind Exposure
  ,                                       !- View Factor to Ground
  ,                                       !- Number of Vertices
  8.88178419700125e-16, -1.06581410364015e-14, 6.096, !- X,Y,Z Vertex 1 {m}
  8.88178419700125e-16, -1.06581410364015e-14, 0, !- X,Y,Z Vertex 2 {m}
  0.879001928434741, -1.06581410364015e-14, 0, !- X,Y,Z Vertex 3 {m}
  0.879001928434741, -1.06581410364015e-14, 6.096; !- X,Y,Z Vertex 4 {m}

BuildingSurface:Detailed,
  SuperMarket Meeting B  - Story ground Wall 4, !- Name
  Wall,                                   !- Surface Type
  ,                                       !- Construction Name
  Zone SuperMarket Meeting B  - Story ground, !- Zone Name
  SuperMarket Meeting B  - Story ground,  !- Space Name
  Surface,                                !- Outside Boundary Condition
  SuperMarket Corridor B  - Story ground Wall 1, !- Outside Boundary Condition Object
  NoSun,                                  !- Sun Exposure
  NoWind,                                 !- Wind Exposure
  ,                                       !- View Factor to Ground
  ,                                       !- Number of Vertices
  0.879001928434741, -7.105427357601e-15, 6.096, !- X,Y,Z Vertex 1 {m}
  0.879001928434741, -7.105427357601e-15, 0, !- X,Y,Z Vertex 2 {m}
  0.879001928434741, 43.6489086146994, 0, !- X,Y,Z Vertex 3 {m}
  0.879001928434741, 43.6489086146994, 6.096; !- X,Y,Z Vertex 4 {m}

Zone,
  Zone SuperMarket Meeting C  - Story ground, !- Name
  -0,                                     !- Direction of Relative North {deg}
  5.86001285623163,                       !- X Origin {m}
  21.8244543073497,                       !- Y Origin {m}
  0,                                      !- Z Origin {m}
  ,                                       !- Type
  1,                                      !- Multiplier
  ,                                       !- Ceiling Height {m}
  ,                                       !- Volume {m3}
  ,                                       !- Floor Area {m2}
  ,                                       !- Zone Inside Convection Algorithm
  ,                                       !- Zone Outside Convection Algorithm
  Yes;                                    !- Part of Total Floor Area

Space,
  SuperMarket Meeting C  - Story ground,  !- Name
  Zone SuperMarket Meeting C  - Story ground, !- Zone Name
  ,                                       !- Ceiling Height {m}
  ,                                       !- Volume {m3}
  ,                                       !- Floor Area {m2}
  SuperMarket Meeting;                    !- Space Type

BuildingSurface:Detailed,
  SuperMarket Meeting C  - Story ground Floor 1, !- Name
  Floor,                                  !- Surface Type
  ,                                       !- Construction Name
  Zone SuperMarket Meeting C  - Story ground, !- Zone Name
  SuperMarket Meeting C  - Story ground,  !- Space Name
  Ground,                                 !- Outside Boundary Condition
  ,                                       !- Outside Boundary Condition Object
  NoSun,                                  !- Sun Exposure
  NoWind,                                 !- Wind Exposure
  ,                                       !- View Factor to Ground
  ,                                       !- Number of Vertices
  8.88178419700125e-16, 7.105427357601e-15, 0, !- X,Y,Z Vertex 1 {m}
  8.88178419700125e-16, 4.57200000000001, 0, !- X,Y,Z Vertex 2 {m}
  0.879001928434741, 4.57200000000001, 0, !- X,Y,Z Vertex 3 {m}
  0.879001928434741, 7.105427357601e-15, 0; !- X,Y,Z Vertex 4 {m}

BuildingSurface:Detailed,
  SuperMarket Meeting C  - Story ground RoofCeiling 1, !- Name
  Roof,                                   !- Surface Type
  ,                                       !- Construction Name
  Zone SuperMarket Meeting C  - Story ground, !- Zone Name
  SuperMarket Meeting C  - Story ground,  !- Space Name
  Outdoors,                               !- Outside Boundary Condition
  ,                                       !- Outside Boundary Condition Object
  SunExposed,                             !- Sun Exposure
  WindExposed,                            !- Wind Exposure
  ,                                       !- View Factor to Ground
  ,                                       !- Number of Vertices
  0.879001928434741, 7.105427357601e-15, 6.096, !- X,Y,Z Vertex 1 {m}
  0.879001928434741, 4.57200000000001, 6.096, !- X,Y,Z Vertex 2 {m}
  8.88178419700125e-16, 4.57200000000001, 6.096, !- X,Y,Z Vertex 3 {m}
  8.88178419700125e-16, 7.105427357601e-15, 6.096; !- X,Y,Z Vertex 4 {m}

BuildingSurface:Detailed,
  SuperMarket Meeting C  - Story ground Wall 1, !- Name
  Wall,                                   !- Surface Type
  ,                                       !- Construction Name
  Zone SuperMarket Meeting C  - Story ground, !- Zone Name
  SuperMarket Meeting C  - Story ground,  !- Space Name
  Surface,                                !- Outside Boundary Condition
  SuperMarket Dining C  - Story ground Wall 4, !- Outside Boundary Condition Object
  NoSun,                                  !- Sun Exposure
  NoWind,                                 !- Wind Exposure
  ,                                       !- View Factor to Ground
  ,                                       !- Number of Vertices
  8.88178419700125e-16, 4.57200000000001, 6.096, !- X,Y,Z Vertex 1 {m}
  8.88178419700125e-16, 4.57200000000001, 0, !- X,Y,Z Vertex 2 {m}
  8.88178419700125e-16, 7.105427357601e-15, 0, !- X,Y,Z Vertex 3 {m}
  8.88178419700125e-16, 7.105427357601e-15, 6.096; !- X,Y,Z Vertex 4 {m}

BuildingSurface:Detailed,
  SuperMarket Meeting C  - Story ground Wall 2, !- Name
  Wall,                                   !- Surface Type
  ,                                       !- Construction Name
  Zone SuperMarket Meeting C  - Story ground, !- Zone Name
  SuperMarket Meeting C  - Story ground,  !- Space Name
  Outdoors,                               !- Outside Boundary Condition
  ,                                       !- Outside Boundary Condition Object
  SunExposed,                             !- Sun Exposure
  WindExposed,                            !- Wind Exposure
  ,                                       !- View Factor to Ground
  ,                                       !- Number of Vertices
  8.88178419700125e-16, 4.57200000000001, 6.096, !- X,Y,Z Vertex 1 {m}
  0.879001928434741, 4.57200000000001, 6.096, !- X,Y,Z Vertex 2 {m}
  0.879001928434741, 4.57200000000001, 0, !- X,Y,Z Vertex 3 {m}
  8.88178419700125e-16, 4.57200000000001, 0; !- X,Y,Z Vertex 4 {m}

FenestrationSurface:Detailed,
  SuperMarket Meeting C  - Story ground Wall 2 FixedWindow 1, !- Name
  Window,                                 !- Surface Type
  ,                                       !- Construction Name
  SuperMarket Meeting C  - Story ground Wall 2, !- Building Surface Name
  ,                                       !- Outside Boundary Condition Object
  ,                                       !- View Factor to Ground
  ,                                       !- Frame and Divider Name
  ,                                       !- Multiplier
  ,                                       !- Number of Vertices
  0.853601928434741, 4.57200000000001, 1.47369060695763, !- X,Y,Z Vertex 1 {m}
  0.853601928434741, 4.57200000000001, 0.762, !- X,Y,Z Vertex 2 {m}
  0.0254000000000009, 4.57200000000001, 0.762, !- X,Y,Z Vertex 3 {m}
  0.0254000000000009, 4.57200000000001, 1.47369060695763; !- X,Y,Z Vertex 4 {m}

BuildingSurface:Detailed,
  SuperMarket Meeting C  - Story ground Wall 3, !- Name
  Wall,                                   !- Surface Type
  ,                                       !- Construction Name
  Zone SuperMarket Meeting C  - Story ground, !- Zone Name
  SuperMarket Meeting C  - Story ground,  !- Space Name
  Surface,                                !- Outside Boundary Condition
  SuperMarket Meeting B  - Story ground Wall 2, !- Outside Boundary Condition Object
  NoSun,                                  !- Sun Exposure
  NoWind,                                 !- Wind Exposure
  ,                                       !- View Factor to Ground
  ,                                       !- Number of Vertices
  8.88178419700125e-16, 7.105427357601e-15, 6.096, !- X,Y,Z Vertex 1 {m}
  8.88178419700125e-16, 7.105427357601e-15, 0, !- X,Y,Z Vertex 2 {m}
  0.879001928434741, 7.105427357601e-15, 0, !- X,Y,Z Vertex 3 {m}
  0.879001928434741, 7.105427357601e-15, 6.096; !- X,Y,Z Vertex 4 {m}

BuildingSurface:Detailed,
  SuperMarket Meeting C  - Story ground Wall 4, !- Name
  Wall,                                   !- Surface Type
  ,                                       !- Construction Name
  Zone SuperMarket Meeting C  - Story ground, !- Zone Name
  SuperMarket Meeting C  - Story ground,  !- Space Name
  Surface,                                !- Outside Boundary Condition
  SuperMarket Corridor C  - Story ground Wall 1, !- Outside Boundary Condition Object
  NoSun,                                  !- Sun Exposure
  NoWind,                                 !- Wind Exposure
  ,                                       !- View Factor to Ground
  ,                                       !- Number of Vertices
  0.879001928434741, 7.105427357601e-15, 6.096, !- X,Y,Z Vertex 1 {m}
  0.879001928434741, 7.105427357601e-15, 0, !- X,Y,Z Vertex 2 {m}
  0.879001928434741, 4.57200000000001, 0, !- X,Y,Z Vertex 3 {m}
  0.879001928434741, 4.57200000000001, 6.096; !- X,Y,Z Vertex 4 {m}

Zone,
  Zone SuperMarket Office A  - Story ground, !- Name
  -0,                                     !- Direction of Relative North {deg}
  3.91987346464143,                       !- X Origin {m}
  -26.3964543073497,                      !- Y Origin {m}
  0,                                      !- Z Origin {m}
  ,                                       !- Type
  1,                                      !- Multiplier
  ,                                       !- Ceiling Height {m}
  ,                                       !- Volume {m3}
  ,                                       !- Floor Area {m2}
  ,                                       !- Zone Inside Convection Algorithm
  ,                                       !- Zone Outside Convection Algorithm
  Yes;                                    !- Part of Total Floor Area

Space,
  SuperMarket Office A  - Story ground,   !- Name
  Zone SuperMarket Office A  - Story ground, !- Zone Name
  ,                                       !- Ceiling Height {m}
  ,                                       !- Volume {m3}
  ,                                       !- Floor Area {m2}
  SuperMarket Office;                     !- Space Type

SpaceList,
  SuperMarket Office,                     !- Name
  SuperMarket Office B  - Story ground,   !- Space Name 1
  SuperMarket Office C  - Story ground,   !- Space Name 2
  SuperMarket Office A  - Story ground;   !- Space Name 3

BuildingSurface:Detailed,
  SuperMarket Office A  - Story ground Floor 1, !- Name
  Floor,                                  !- Surface Type
  ,                                       !- Construction Name
  Zone SuperMarket Office A  - Story ground, !- Zone Name
  SuperMarket Office A  - Story ground,   !- Space Name
  Ground,                                 !- Outside Boundary Condition
  ,                                       !- Outside Boundary Condition Object
  NoSun,                                  !- Sun Exposure
  NoWind,                                 !- Wind Exposure
  ,                                       !- View Factor to Ground
  ,                                       !- Number of Vertices
  3.5527136788005e-15, -7.105427357601e-15, 0, !- X,Y,Z Vertex 1 {m}
  3.5527136788005e-15, 4.57199999999999, 0, !- X,Y,Z Vertex 2 {m}
  0.530568731577733, 4.57199999999999, 0, !- X,Y,Z Vertex 3 {m}
  0.530568731577733, -7.105427357601e-15, 0; !- X,Y,Z Vertex 4 {m}

BuildingSurface:Detailed,
  SuperMarket Office A  - Story ground RoofCeiling 1, !- Name
  Roof,                                   !- Surface Type
  ,                                       !- Construction Name
  Zone SuperMarket Office A  - Story ground, !- Zone Name
  SuperMarket Office A  - Story ground,   !- Space Name
  Outdoors,                               !- Outside Boundary Condition
  ,                                       !- Outside Boundary Condition Object
  SunExposed,                             !- Sun Exposure
  WindExposed,                            !- Wind Exposure
  ,                                       !- View Factor to Ground
  ,                                       !- Number of Vertices
  0.530568731577733, -7.105427357601e-15, 6.096, !- X,Y,Z Vertex 1 {m}
  0.530568731577733, 4.57199999999999, 6.096, !- X,Y,Z Vertex 2 {m}
  3.5527136788005e-15, 4.57199999999999, 6.096, !- X,Y,Z Vertex 3 {m}
  3.5527136788005e-15, -7.105427357601e-15, 6.096; !- X,Y,Z Vertex 4 {m}

BuildingSurface:Detailed,
  SuperMarket Office A  - Story ground Wall 1, !- Name
  Wall,                                   !- Surface Type
  ,                                       !- Construction Name
  Zone SuperMarket Office A  - Story ground, !- Zone Name
  SuperMarket Office A  - Story ground,   !- Space Name
  Surface,                                !- Outside Boundary Condition
  SuperMarket Sales A  - Story ground Wall 4, !- Outside Boundary Condition Object
  NoSun,                                  !- Sun Exposure
  NoWind,                                 !- Wind Exposure
  ,                                       !- View Factor to Ground
  ,                                       !- Number of Vertices
  3.5527136788005e-15, 4.57199999999999, 6.096, !- X,Y,Z Vertex 1 {m}
  3.5527136788005e-15, 4.57199999999999, 0, !- X,Y,Z Vertex 2 {m}
  3.5527136788005e-15, -7.105427357601e-15, 0, !- X,Y,Z Vertex 3 {m}
  3.5527136788005e-15, -7.105427357601e-15, 6.096; !- X,Y,Z Vertex 4 {m}

BuildingSurface:Detailed,
  SuperMarket Office A  - Story ground Wall 2, !- Name
  Wall,                                   !- Surface Type
  ,                                       !- Construction Name
  Zone SuperMarket Office A  - Story ground, !- Zone Name
  SuperMarket Office A  - Story ground,   !- Space Name
  Surface,                                !- Outside Boundary Condition
  SuperMarket Office B  - Story ground Wall 3, !- Outside Boundary Condition Object
  NoSun,                                  !- Sun Exposure
  NoWind,                                 !- Wind Exposure
  ,                                       !- View Factor to Ground
  ,                                       !- Number of Vertices
  0.530568731577733, 4.57199999999999, 6.096, !- X,Y,Z Vertex 1 {m}
  0.530568731577733, 4.57199999999999, 0, !- X,Y,Z Vertex 2 {m}
  3.5527136788005e-15, 4.57199999999999, 0, !- X,Y,Z Vertex 3 {m}
  3.5527136788005e-15, 4.57199999999999, 6.096; !- X,Y,Z Vertex 4 {m}

BuildingSurface:Detailed,
  SuperMarket Office A  - Story ground Wall 3, !- Name
  Wall,                                   !- Surface Type
  ,                                       !- Construction Name
  Zone SuperMarket Office A  - Story ground, !- Zone Name
  SuperMarket Office A  - Story ground,   !- Space Name
  Outdoors,                               !- Outside Boundary Condition
  ,                                       !- Outside Boundary Condition Object
  SunExposed,                             !- Sun Exposure
  WindExposed,                            !- Wind Exposure
  ,                                       !- View Factor to Ground
  ,                                       !- Number of Vertices
  0.530568731577733, -7.105427357601e-15, 6.096, !- X,Y,Z Vertex 1 {m}
  3.5527136788005e-15, -7.105427357601e-15, 6.096, !- X,Y,Z Vertex 2 {m}
  3.5527136788005e-15, -7.105427357601e-15, 0, !- X,Y,Z Vertex 3 {m}
  0.530568731577733, -7.105427357601e-15, 0; !- X,Y,Z Vertex 4 {m}

FenestrationSurface:Detailed,
  SuperMarket Office A  - Story ground Wall 3 FixedWindow 1, !- Name
  Window,                                 !- Surface Type
  ,                                       !- Construction Name
  SuperMarket Office A  - Story ground Wall 3, !- Building Surface Name
  ,                                       !- Outside Boundary Condition Object
  ,                                       !- View Factor to Ground
  ,                                       !- Frame and Divider Name
  ,                                       !- Multiplier
  ,                                       !- Number of Vertices
  0.0254000000000036, -7.105427357601e-15, 1.50356180932588, !- X,Y,Z Vertex 1 {m}
  0.0254000000000036, -7.105427357601e-15, 0.762, !- X,Y,Z Vertex 2 {m}
  0.505168731577733, -7.105427357601e-15, 0.762, !- X,Y,Z Vertex 3 {m}
  0.505168731577733, -7.105427357601e-15, 1.50356180932588; !- X,Y,Z Vertex 4 {m}

BuildingSurface:Detailed,
  SuperMarket Office A  - Story ground Wall 4, !- Name
  Wall,                                   !- Surface Type
  ,                                       !- Construction Name
  Zone SuperMarket Office A  - Story ground, !- Zone Name
  SuperMarket Office A  - Story ground,   !- Space Name
  Surface,                                !- Outside Boundary Condition
  SuperMarket Vestibule A  - Story ground Wall 1, !- Outside Boundary Condition Object
  NoSun,                                  !- Sun Exposure
  NoWind,                                 !- Wind Exposure
  ,                                       !- View Factor to Ground
  ,                                       !- Number of Vertices
  0.530568731577734, -7.105427357601e-15, 6.096, !- X,Y,Z Vertex 1 {m}
  0.530568731577734, -7.105427357601e-15, 0, !- X,Y,Z Vertex 2 {m}
  0.530568731577734, 4.57199999999999, 0, !- X,Y,Z Vertex 3 {m}
  0.530568731577734, 4.57199999999999, 6.096; !- X,Y,Z Vertex 4 {m}

Zone,
  Zone SuperMarket Office B  - Story ground, !- Name
  -0,                                     !- Direction of Relative North {deg}
  3.91987346464143,                       !- X Origin {m}
  -21.8244543073497,                      !- Y Origin {m}
  0,                                      !- Z Origin {m}
  ,                                       !- Type
  1,                                      !- Multiplier
  ,                                       !- Ceiling Height {m}
  ,                                       !- Volume {m3}
  ,                                       !- Floor Area {m2}
  ,                                       !- Zone Inside Convection Algorithm
  ,                                       !- Zone Outside Convection Algorithm
  Yes;                                    !- Part of Total Floor Area

Space,
  SuperMarket Office B  - Story ground,   !- Name
  Zone SuperMarket Office B  - Story ground, !- Zone Name
  ,                                       !- Ceiling Height {m}
  ,                                       !- Volume {m3}
  ,                                       !- Floor Area {m2}
  SuperMarket Office;                     !- Space Type

BuildingSurface:Detailed,
  SuperMarket Office B  - Story ground Floor 1, !- Name
  Floor,                                  !- Surface Type
  ,                                       !- Construction Name
  Zone SuperMarket Office B  - Story ground, !- Zone Name
  SuperMarket Office B  - Story ground,   !- Space Name
  Ground,                                 !- Outside Boundary Condition
  ,                                       !- Outside Boundary Condition Object
  NoSun,                                  !- Sun Exposure
  NoWind,                                 !- Wind Exposure
  ,                                       !- View Factor to Ground
  ,                                       !- Number of Vertices
  3.5527136788005e-15, -7.105427357601e-15, 0, !- X,Y,Z Vertex 1 {m}
  3.5527136788005e-15, 43.6489086146994, 0, !- X,Y,Z Vertex 2 {m}
  0.530568731577733, 43.6489086146994, 0, !- X,Y,Z Vertex 3 {m}
  0.530568731577733, -7.105427357601e-15, 0; !- X,Y,Z Vertex 4 {m}

BuildingSurface:Detailed,
  SuperMarket Office B  - Story ground RoofCeiling 1, !- Name
  Roof,                                   !- Surface Type
  ,                                       !- Construction Name
  Zone SuperMarket Office B  - Story ground, !- Zone Name
  SuperMarket Office B  - Story ground,   !- Space Name
  Outdoors,                               !- Outside Boundary Condition
  ,                                       !- Outside Boundary Condition Object
  SunExposed,                             !- Sun Exposure
  WindExposed,                            !- Wind Exposure
  ,                                       !- View Factor to Ground
  ,                                       !- Number of Vertices
  0.530568731577733, -7.105427357601e-15, 6.096, !- X,Y,Z Vertex 1 {m}
  0.530568731577733, 43.6489086146994, 6.096, !- X,Y,Z Vertex 2 {m}
  3.5527136788005e-15, 43.6489086146994, 6.096, !- X,Y,Z Vertex 3 {m}
  3.5527136788005e-15, -7.105427357601e-15, 6.096; !- X,Y,Z Vertex 4 {m}

BuildingSurface:Detailed,
  SuperMarket Office B  - Story ground Wall 1, !- Name
  Wall,                                   !- Surface Type
  ,                                       !- Construction Name
  Zone SuperMarket Office B  - Story ground, !- Zone Name
  SuperMarket Office B  - Story ground,   !- Space Name
  Surface,                                !- Outside Boundary Condition
  SuperMarket Sales B  - Story ground Wall 4, !- Outside Boundary Condition Object
  NoSun,                                  !- Sun Exposure
  NoWind,                                 !- Wind Exposure
  ,                                       !- View Factor to Ground
  ,                                       !- Number of Vertices
  3.5527136788005e-15, 43.6489086146994, 6.096, !- X,Y,Z Vertex 1 {m}
  3.5527136788005e-15, 43.6489086146994, 0, !- X,Y,Z Vertex 2 {m}
  3.5527136788005e-15, -7.105427357601e-15, 0, !- X,Y,Z Vertex 3 {m}
  3.5527136788005e-15, -7.105427357601e-15, 6.096; !- X,Y,Z Vertex 4 {m}

BuildingSurface:Detailed,
  SuperMarket Office B  - Story ground Wall 2, !- Name
  Wall,                                   !- Surface Type
  ,                                       !- Construction Name
  Zone SuperMarket Office B  - Story ground, !- Zone Name
  SuperMarket Office B  - Story ground,   !- Space Name
  Surface,                                !- Outside Boundary Condition
  SuperMarket Office C  - Story ground Wall 3, !- Outside Boundary Condition Object
  NoSun,                                  !- Sun Exposure
  NoWind,                                 !- Wind Exposure
  ,                                       !- View Factor to Ground
  ,                                       !- Number of Vertices
  0.530568731577733, 43.6489086146994, 6.096, !- X,Y,Z Vertex 1 {m}
  0.530568731577733, 43.6489086146994, 0, !- X,Y,Z Vertex 2 {m}
  3.5527136788005e-15, 43.6489086146994, 0, !- X,Y,Z Vertex 3 {m}
  3.5527136788005e-15, 43.6489086146994, 6.096; !- X,Y,Z Vertex 4 {m}

BuildingSurface:Detailed,
  SuperMarket Office B  - Story ground Wall 3, !- Name
  Wall,                                   !- Surface Type
  ,                                       !- Construction Name
  Zone SuperMarket Office B  - Story ground, !- Zone Name
  SuperMarket Office B  - Story ground,   !- Space Name
  Surface,                                !- Outside Boundary Condition
  SuperMarket Office A  - Story ground Wall 2, !- Outside Boundary Condition Object
  NoSun,                                  !- Sun Exposure
  NoWind,                                 !- Wind Exposure
  ,                                       !- View Factor to Ground
  ,                                       !- Number of Vertices
  3.5527136788005e-15, -1.06581410364015e-14, 6.096, !- X,Y,Z Vertex 1 {m}
  3.5527136788005e-15, -1.06581410364015e-14, 0, !- X,Y,Z Vertex 2 {m}
  0.530568731577733, -1.06581410364015e-14, 0, !- X,Y,Z Vertex 3 {m}
  0.530568731577733, -1.06581410364015e-14, 6.096; !- X,Y,Z Vertex 4 {m}

BuildingSurface:Detailed,
  SuperMarket Office B  - Story ground Wall 4, !- Name
  Wall,                                   !- Surface Type
  ,                                       !- Construction Name
  Zone SuperMarket Office B  - Story ground, !- Zone Name
  SuperMarket Office B  - Story ground,   !- Space Name
  Surface,                                !- Outside Boundary Condition
  SuperMarket Vestibule B  - Story ground Wall 1, !- Outside Boundary Condition Object
  NoSun,                                  !- Sun Exposure
  NoWind,                                 !- Wind Exposure
  ,                                       !- View Factor to Ground
  ,                                       !- Number of Vertices
  0.530568731577734, -7.105427357601e-15, 6.096, !- X,Y,Z Vertex 1 {m}
  0.530568731577734, -7.105427357601e-15, 0, !- X,Y,Z Vertex 2 {m}
  0.530568731577734, 43.6489086146994, 0, !- X,Y,Z Vertex 3 {m}
  0.530568731577734, 43.6489086146994, 6.096; !- X,Y,Z Vertex 4 {m}

Zone,
  Zone SuperMarket Office C  - Story ground, !- Name
  -0,                                     !- Direction of Relative North {deg}
  3.91987346464143,                       !- X Origin {m}
  21.8244543073497,                       !- Y Origin {m}
  0,                                      !- Z Origin {m}
  ,                                       !- Type
  1,                                      !- Multiplier
  ,                                       !- Ceiling Height {m}
  ,                                       !- Volume {m3}
  ,                                       !- Floor Area {m2}
  ,                                       !- Zone Inside Convection Algorithm
  ,                                       !- Zone Outside Convection Algorithm
  Yes;                                    !- Part of Total Floor Area

Space,
  SuperMarket Office C  - Story ground,   !- Name
  Zone SuperMarket Office C  - Story ground, !- Zone Name
  ,                                       !- Ceiling Height {m}
  ,                                       !- Volume {m3}
  ,                                       !- Floor Area {m2}
  SuperMarket Office;                     !- Space Type

BuildingSurface:Detailed,
  SuperMarket Office C  - Story ground Floor 1, !- Name
  Floor,                                  !- Surface Type
  ,                                       !- Construction Name
  Zone SuperMarket Office C  - Story ground, !- Zone Name
  SuperMarket Office C  - Story ground,   !- Space Name
  Ground,                                 !- Outside Boundary Condition
  ,                                       !- Outside Boundary Condition Object
  NoSun,                                  !- Sun Exposure
  NoWind,                                 !- Wind Exposure
  ,                                       !- View Factor to Ground
  ,                                       !- Number of Vertices
  3.5527136788005e-15, 7.105427357601e-15, 0, !- X,Y,Z Vertex 1 {m}
  3.5527136788005e-15, 4.57200000000001, 0, !- X,Y,Z Vertex 2 {m}
  0.530568731577733, 4.57200000000001, 0, !- X,Y,Z Vertex 3 {m}
  0.530568731577733, 7.105427357601e-15, 0; !- X,Y,Z Vertex 4 {m}

BuildingSurface:Detailed,
  SuperMarket Office C  - Story ground RoofCeiling 1, !- Name
  Roof,                                   !- Surface Type
  ,                                       !- Construction Name
  Zone SuperMarket Office C  - Story ground, !- Zone Name
  SuperMarket Office C  - Story ground,   !- Space Name
  Outdoors,                               !- Outside Boundary Condition
  ,                                       !- Outside Boundary Condition Object
  SunExposed,                             !- Sun Exposure
  WindExposed,                            !- Wind Exposure
  ,                                       !- View Factor to Ground
  ,                                       !- Number of Vertices
  0.530568731577733, 7.105427357601e-15, 6.096, !- X,Y,Z Vertex 1 {m}
  0.530568731577733, 4.57200000000001, 6.096, !- X,Y,Z Vertex 2 {m}
  3.5527136788005e-15, 4.57200000000001, 6.096, !- X,Y,Z Vertex 3 {m}
  3.5527136788005e-15, 7.105427357601e-15, 6.096; !- X,Y,Z Vertex 4 {m}

BuildingSurface:Detailed,
  SuperMarket Office C  - Story ground Wall 1, !- Name
  Wall,                                   !- Surface Type
  ,                                       !- Construction Name
  Zone SuperMarket Office C  - Story ground, !- Zone Name
  SuperMarket Office C  - Story ground,   !- Space Name
  Surface,                                !- Outside Boundary Condition
  SuperMarket Sales C  - Story ground Wall 4, !- Outside Boundary Condition Object
  NoSun,                                  !- Sun Exposure
  NoWind,                                 !- Wind Exposure
  ,                                       !- View Factor to Ground
  ,                                       !- Number of Vertices
  3.5527136788005e-15, 4.57200000000001, 6.096, !- X,Y,Z Vertex 1 {m}
  3.5527136788005e-15, 4.57200000000001, 0, !- X,Y,Z Vertex 2 {m}
  3.5527136788005e-15, 7.105427357601e-15, 0, !- X,Y,Z Vertex 3 {m}
  3.5527136788005e-15, 7.105427357601e-15, 6.096; !- X,Y,Z Vertex 4 {m}

BuildingSurface:Detailed,
  SuperMarket Office C  - Story ground Wall 2, !- Name
  Wall,                                   !- Surface Type
  ,                                       !- Construction Name
  Zone SuperMarket Office C  - Story ground, !- Zone Name
  SuperMarket Office C  - Story ground,   !- Space Name
  Outdoors,                               !- Outside Boundary Condition
  ,                                       !- Outside Boundary Condition Object
  SunExposed,                             !- Sun Exposure
  WindExposed,                            !- Wind Exposure
  ,                                       !- View Factor to Ground
  ,                                       !- Number of Vertices
  3.5527136788005e-15, 4.57200000000001, 6.096, !- X,Y,Z Vertex 1 {m}
  0.530568731577733, 4.57200000000001, 6.096, !- X,Y,Z Vertex 2 {m}
  0.530568731577733, 4.57200000000001, 0, !- X,Y,Z Vertex 3 {m}
  3.5527136788005e-15, 4.57200000000001, 0; !- X,Y,Z Vertex 4 {m}

FenestrationSurface:Detailed,
  SuperMarket Office C  - Story ground Wall 2 FixedWindow 1, !- Name
  Window,                                 !- Surface Type
  ,                                       !- Construction Name
  SuperMarket Office C  - Story ground Wall 2, !- Building Surface Name
  ,                                       !- Outside Boundary Condition Object
  ,                                       !- View Factor to Ground
  ,                                       !- Frame and Divider Name
  ,                                       !- Multiplier
  ,                                       !- Number of Vertices
  0.505168731577733, 4.57200000000001, 1.50356180932588, !- X,Y,Z Vertex 1 {m}
  0.505168731577733, 4.57200000000001, 0.762, !- X,Y,Z Vertex 2 {m}
  0.0254000000000035, 4.57200000000001, 0.762, !- X,Y,Z Vertex 3 {m}
  0.0254000000000035, 4.57200000000001, 1.50356180932588; !- X,Y,Z Vertex 4 {m}

BuildingSurface:Detailed,
  SuperMarket Office C  - Story ground Wall 3, !- Name
  Wall,                                   !- Surface Type
  ,                                       !- Construction Name
  Zone SuperMarket Office C  - Story ground, !- Zone Name
  SuperMarket Office C  - Story ground,   !- Space Name
  Surface,                                !- Outside Boundary Condition
  SuperMarket Office B  - Story ground Wall 2, !- Outside Boundary Condition Object
  NoSun,                                  !- Sun Exposure
  NoWind,                                 !- Wind Exposure
  ,                                       !- View Factor to Ground
  ,                                       !- Number of Vertices
  3.5527136788005e-15, 7.105427357601e-15, 6.096, !- X,Y,Z Vertex 1 {m}
  3.5527136788005e-15, 7.105427357601e-15, 0, !- X,Y,Z Vertex 2 {m}
  0.530568731577733, 7.105427357601e-15, 0, !- X,Y,Z Vertex 3 {m}
  0.530568731577733, 7.105427357601e-15, 6.096; !- X,Y,Z Vertex 4 {m}

BuildingSurface:Detailed,
  SuperMarket Office C  - Story ground Wall 4, !- Name
  Wall,                                   !- Surface Type
  ,                                       !- Construction Name
  Zone SuperMarket Office C  - Story ground, !- Zone Name
  SuperMarket Office C  - Story ground,   !- Space Name
  Surface,                                !- Outside Boundary Condition
  SuperMarket Vestibule C  - Story ground Wall 1, !- Outside Boundary Condition Object
  NoSun,                                  !- Sun Exposure
  NoWind,                                 !- Wind Exposure
  ,                                       !- View Factor to Ground
  ,                                       !- Number of Vertices
  0.530568731577734, 7.105427357601e-15, 6.096, !- X,Y,Z Vertex 1 {m}
  0.530568731577734, 7.105427357601e-15, 0, !- X,Y,Z Vertex 2 {m}
  0.530568731577734, 4.57200000000001, 0, !- X,Y,Z Vertex 3 {m}
  0.530568731577734, 4.57200000000001, 6.096; !- X,Y,Z Vertex 4 {m}

Zone,
  Zone SuperMarket Produce A  - Story ground, !- Name
  -0,                                     !- Direction of Relative North {deg}
  26.124570827984,                        !- X Origin {m}
  -26.3964543073497,                      !- Y Origin {m}
  0,                                      !- Z Origin {m}
  ,                                       !- Type
  1,                                      !- Multiplier
  ,                                       !- Ceiling Height {m}
  ,                                       !- Volume {m3}
  ,                                       !- Floor Area {m2}
  ,                                       !- Zone Inside Convection Algorithm
  ,                                       !- Zone Outside Convection Algorithm
  Yes;                                    !- Part of Total Floor Area

Space,
  SuperMarket Produce A  - Story ground,  !- Name
  Zone SuperMarket Produce A  - Story ground, !- Zone Name
  ,                                       !- Ceiling Height {m}
  ,                                       !- Volume {m3}
  ,                                       !- Floor Area {m2}
  SuperMarket Produce;                    !- Space Type

SpaceList,
  SuperMarket Produce,                    !- Name
  SuperMarket Produce A  - Story ground,  !- Space Name 1
  SuperMarket Produce B  - Story ground,  !- Space Name 2
  SuperMarket Produce B end_b - Story ground, !- Space Name 3
  SuperMarket Produce A end_b - Story ground, !- Space Name 4
  SuperMarket Produce C  - Story ground,  !- Space Name 5
  SuperMarket Produce C end_b - Story ground; !- Space Name 6

BuildingSurface:Detailed,
  SuperMarket Produce A  - Story ground Floor 1, !- Name
  Floor,                                  !- Surface Type
  ,                                       !- Construction Name
  Zone SuperMarket Produce A  - Story ground, !- Zone Name
  SuperMarket Produce A  - Story ground,  !- Space Name
  Ground,                                 !- Outside Boundary Condition
  ,                                       !- Outside Boundary Condition Object
  NoSun,                                  !- Sun Exposure
  NoWind,                                 !- Wind Exposure
  ,                                       !- View Factor to Ground
  ,                                       !- Number of Vertices
  1.4210854715202e-14, -7.105427357601e-15, 0, !- X,Y,Z Vertex 1 {m}
  1.4210854715202e-14, 4.57199999999999, 0, !- X,Y,Z Vertex 2 {m}
  8.89811063304051, 4.57199999999999, 0,  !- X,Y,Z Vertex 3 {m}
  8.89811063304051, -7.105427357601e-15, 0; !- X,Y,Z Vertex 4 {m}

BuildingSurface:Detailed,
  SuperMarket Produce A  - Story ground RoofCeiling 1, !- Name
  Roof,                                   !- Surface Type
  ,                                       !- Construction Name
  Zone SuperMarket Produce A  - Story ground, !- Zone Name
  SuperMarket Produce A  - Story ground,  !- Space Name
  Outdoors,                               !- Outside Boundary Condition
  ,                                       !- Outside Boundary Condition Object
  SunExposed,                             !- Sun Exposure
  WindExposed,                            !- Wind Exposure
  ,                                       !- View Factor to Ground
  ,                                       !- Number of Vertices
  8.89811063304051, -7.105427357601e-15, 6.096, !- X,Y,Z Vertex 1 {m}
  8.89811063304051, 4.57199999999999, 6.096, !- X,Y,Z Vertex 2 {m}
  1.4210854715202e-14, 4.57199999999999, 6.096, !- X,Y,Z Vertex 3 {m}
  1.4210854715202e-14, -7.105427357601e-15, 6.096; !- X,Y,Z Vertex 4 {m}

BuildingSurface:Detailed,
  SuperMarket Produce A  - Story ground Wall 1, !- Name
  Wall,                                   !- Surface Type
  ,                                       !- Construction Name
  Zone SuperMarket Produce A  - Story ground, !- Zone Name
  SuperMarket Produce A  - Story ground,  !- Space Name
  Surface,                                !- Outside Boundary Condition
  SuperMarket DryStorage A  - Story ground Wall 4, !- Outside Boundary Condition Object
  NoSun,                                  !- Sun Exposure
  NoWind,                                 !- Wind Exposure
  ,                                       !- View Factor to Ground
  ,                                       !- Number of Vertices
  -3.19744231092045e-14, 4.57199999999999, 6.096, !- X,Y,Z Vertex 1 {m}
  -3.19744231092045e-14, 4.57199999999999, 0, !- X,Y,Z Vertex 2 {m}
  -3.19744231092045e-14, -7.105427357601e-15, 0, !- X,Y,Z Vertex 3 {m}
  -3.19744231092045e-14, -7.105427357601e-15, 6.096; !- X,Y,Z Vertex 4 {m}

BuildingSurface:Detailed,
  SuperMarket Produce A  - Story ground Wall 2, !- Name
  Wall,                                   !- Surface Type
  ,                                       !- Construction Name
  Zone SuperMarket Produce A  - Story ground, !- Zone Name
  SuperMarket Produce A  - Story ground,  !- Space Name
  Surface,                                !- Outside Boundary Condition
  SuperMarket Produce B  - Story ground Wall 2, !- Outside Boundary Condition Object
  NoSun,                                  !- Sun Exposure
  NoWind,                                 !- Wind Exposure
  ,                                       !- View Factor to Ground
  ,                                       !- Number of Vertices
  8.89811063304051, 4.57199999999999, 6.096, !- X,Y,Z Vertex 1 {m}
  8.89811063304051, 4.57199999999999, 0,  !- X,Y,Z Vertex 2 {m}
  1.4210854715202e-14, 4.57199999999999, 0, !- X,Y,Z Vertex 3 {m}
  1.4210854715202e-14, 4.57199999999999, 6.096; !- X,Y,Z Vertex 4 {m}

BuildingSurface:Detailed,
  SuperMarket Produce A  - Story ground Wall 3, !- Name
  Wall,                                   !- Surface Type
  ,                                       !- Construction Name
  Zone SuperMarket Produce A  - Story ground, !- Zone Name
  SuperMarket Produce A  - Story ground,  !- Space Name
  Outdoors,                               !- Outside Boundary Condition
  ,                                       !- Outside Boundary Condition Object
  SunExposed,                             !- Sun Exposure
  WindExposed,                            !- Wind Exposure
  ,                                       !- View Factor to Ground
  ,                                       !- Number of Vertices
  8.89811063304051, -7.105427357601e-15, 6.096, !- X,Y,Z Vertex 1 {m}
  1.4210854715202e-14, -7.105427357601e-15, 6.096, !- X,Y,Z Vertex 2 {m}
  1.4210854715202e-14, -7.105427357601e-15, 0, !- X,Y,Z Vertex 3 {m}
  8.89811063304051, -7.105427357601e-15, 0; !- X,Y,Z Vertex 4 {m}

FenestrationSurface:Detailed,
  SuperMarket Produce A  - Story ground Wall 3 FixedWindow 1, !- Name
  Window,                                 !- Surface Type
  ,                                       !- Construction Name
  SuperMarket Produce A  - Story ground Wall 3, !- Building Surface Name
  ,                                       !- Outside Boundary Condition Object
  ,                                       !- View Factor to Ground
  ,                                       !- Frame and Divider Name
  ,                                       !- Multiplier
  ,                                       !- Number of Vertices
  0.0254000000000142, -7.105427357601e-15, 1.43641026019916, !- X,Y,Z Vertex 1 {m}
  0.0254000000000142, -7.105427357601e-15, 0.762, !- X,Y,Z Vertex 2 {m}
  8.87271063304051, -7.105427357601e-15, 0.762, !- X,Y,Z Vertex 3 {m}
  8.87271063304051, -7.105427357601e-15, 1.43641026019916; !- X,Y,Z Vertex 4 {m}

BuildingSurface:Detailed,
  SuperMarket Produce A  - Story ground Wall 4, !- Name
  Wall,                                   !- Surface Type
  ,                                       !- Construction Name
  Zone SuperMarket Produce A  - Story ground, !- Zone Name
  SuperMarket Produce A  - Story ground,  !- Space Name
  Surface,                                !- Outside Boundary Condition
  SuperMarket Produce A end_b - Story ground Wall 1, !- Outside Boundary Condition Object
  NoSun,                                  !- Sun Exposure
  NoWind,                                 !- Wind Exposure
  ,                                       !- View Factor to Ground
  ,                                       !- Number of Vertices
  8.89811063304046, -7.105427357601e-15, 6.096, !- X,Y,Z Vertex 1 {m}
  8.89811063304046, -7.105427357601e-15, 0, !- X,Y,Z Vertex 2 {m}
  8.89811063304046, 4.57199999999999, 0,  !- X,Y,Z Vertex 3 {m}
  8.89811063304046, 4.57199999999999, 6.096; !- X,Y,Z Vertex 4 {m}

Zone,
  Zone SuperMarket Produce A end_b - Story ground, !- Name
  -0,                                     !- Direction of Relative North {deg}
  35.0226814610245,                       !- X Origin {m}
  -26.3964543073497,                      !- Y Origin {m}
  0,                                      !- Z Origin {m}
  ,                                       !- Type
  1,                                      !- Multiplier
  ,                                       !- Ceiling Height {m}
  ,                                       !- Volume {m3}
  ,                                       !- Floor Area {m2}
  ,                                       !- Zone Inside Convection Algorithm
  ,                                       !- Zone Outside Convection Algorithm
  Yes;                                    !- Part of Total Floor Area

Space,
  SuperMarket Produce A end_b - Story ground, !- Name
  Zone SuperMarket Produce A end_b - Story ground, !- Zone Name
  ,                                       !- Ceiling Height {m}
  ,                                       !- Volume {m3}
  ,                                       !- Floor Area {m2}
  SuperMarket Produce;                    !- Space Type

BuildingSurface:Detailed,
  SuperMarket Produce A end_b - Story ground Floor 1, !- Name
  Floor,                                  !- Surface Type
  ,                                       !- Construction Name
  Zone SuperMarket Produce A end_b - Story ground, !- Zone Name
  SuperMarket Produce A end_b - Story ground, !- Space Name
  Ground,                                 !- Outside Boundary Condition
  ,                                       !- Outside Boundary Condition Object
  NoSun,                                  !- Sun Exposure
  NoWind,                                 !- Wind Exposure
  ,                                       !- View Factor to Ground
  ,                                       !- Number of Vertices
  -3.5527136788005e-14, -7.105427357601e-15, 0, !- X,Y,Z Vertex 1 {m}
  -3.5527136788005e-14, 4.57199999999999, 0, !- X,Y,Z Vertex 2 {m}
  4.57199999999997, 4.57199999999999, 0,  !- X,Y,Z Vertex 3 {m}
  4.57199999999997, -7.105427357601e-15, 0; !- X,Y,Z Vertex 4 {m}

BuildingSurface:Detailed,
  SuperMarket Produce A end_b - Story ground RoofCeiling 1, !- Name
  Roof,                                   !- Surface Type
  ,                                       !- Construction Name
  Zone SuperMarket Produce A end_b - Story ground, !- Zone Name
  SuperMarket Produce A end_b - Story ground, !- Space Name
  Outdoors,                               !- Outside Boundary Condition
  ,                                       !- Outside Boundary Condition Object
  SunExposed,                             !- Sun Exposure
  WindExposed,                            !- Wind Exposure
  ,                                       !- View Factor to Ground
  ,                                       !- Number of Vertices
  4.57199999999997, -7.105427357601e-15, 6.096, !- X,Y,Z Vertex 1 {m}
  4.57199999999997, 4.57199999999999, 6.096, !- X,Y,Z Vertex 2 {m}
  -3.5527136788005e-14, 4.57199999999999, 6.096, !- X,Y,Z Vertex 3 {m}
  -3.5527136788005e-14, -7.105427357601e-15, 6.096; !- X,Y,Z Vertex 4 {m}

BuildingSurface:Detailed,
  SuperMarket Produce A end_b - Story ground Wall 1, !- Name
  Wall,                                   !- Surface Type
  ,                                       !- Construction Name
  Zone SuperMarket Produce A end_b - Story ground, !- Zone Name
  SuperMarket Produce A end_b - Story ground, !- Space Name
  Surface,                                !- Outside Boundary Condition
  SuperMarket Produce A  - Story ground Wall 4, !- Outside Boundary Condition Object
  NoSun,                                  !- Sun Exposure
  NoWind,                                 !- Wind Exposure
  ,                                       !- View Factor to Ground
  ,                                       !- Number of Vertices
  -3.5527136788005e-14, 4.57199999999999, 6.096, !- X,Y,Z Vertex 1 {m}
  -3.5527136788005e-14, 4.57199999999999, 0, !- X,Y,Z Vertex 2 {m}
  -3.5527136788005e-14, -7.105427357601e-15, 0, !- X,Y,Z Vertex 3 {m}
  -3.5527136788005e-14, -7.105427357601e-15, 6.096; !- X,Y,Z Vertex 4 {m}

BuildingSurface:Detailed,
  SuperMarket Produce A end_b - Story ground Wall 2, !- Name
  Wall,                                   !- Surface Type
  ,                                       !- Construction Name
  Zone SuperMarket Produce A end_b - Story ground, !- Zone Name
  SuperMarket Produce A end_b - Story ground, !- Space Name
  Outdoors,                               !- Outside Boundary Condition
  ,                                       !- Outside Boundary Condition Object
  SunExposed,                             !- Sun Exposure
  WindExposed,                            !- Wind Exposure
  ,                                       !- View Factor to Ground
  ,                                       !- Number of Vertices
  4.57199999999997, -7.105427357601e-15, 6.096, !- X,Y,Z Vertex 1 {m}
  -3.5527136788005e-14, -7.105427357601e-15, 6.096, !- X,Y,Z Vertex 2 {m}
  -3.5527136788005e-14, -7.105427357601e-15, 0, !- X,Y,Z Vertex 3 {m}
  4.57199999999997, -7.105427357601e-15, 0; !- X,Y,Z Vertex 4 {m}

FenestrationSurface:Detailed,
  SuperMarket Produce A end_b - Story ground Wall 2 FixedWindow 1, !- Name
  Window,                                 !- Surface Type
  ,                                       !- Construction Name
  SuperMarket Produce A end_b - Story ground Wall 2, !- Building Surface Name
  ,                                       !- Outside Boundary Condition Object
  ,                                       !- View Factor to Ground
  ,                                       !- Frame and Divider Name
  ,                                       !- Multiplier
  ,                                       !- Number of Vertices
  0.0253999999999645, -7.105427357601e-15, 1.44009438202247, !- X,Y,Z Vertex 1 {m}
  0.0253999999999645, -7.105427357601e-15, 0.762, !- X,Y,Z Vertex 2 {m}
  4.54659999999997, -7.105427357601e-15, 0.762, !- X,Y,Z Vertex 3 {m}
  4.54659999999997, -7.105427357601e-15, 1.44009438202247; !- X,Y,Z Vertex 4 {m}

BuildingSurface:Detailed,
  SuperMarket Produce A end_b - Story ground Wall 3, !- Name
  Wall,                                   !- Surface Type
  ,                                       !- Construction Name
  Zone SuperMarket Produce A end_b - Story ground, !- Zone Name
  SuperMarket Produce A end_b - Story ground, !- Space Name
  Outdoors,                               !- Outside Boundary Condition
  ,                                       !- Outside Boundary Condition Object
  SunExposed,                             !- Sun Exposure
  WindExposed,                            !- Wind Exposure
  ,                                       !- View Factor to Ground
  ,                                       !- Number of Vertices
  4.57199999999997, 4.57199999999999, 6.096, !- X,Y,Z Vertex 1 {m}
  4.57199999999997, -7.105427357601e-15, 6.096, !- X,Y,Z Vertex 2 {m}
  4.57199999999997, -7.105427357601e-15, 0, !- X,Y,Z Vertex 3 {m}
  4.57199999999997, 4.57199999999999, 0;  !- X,Y,Z Vertex 4 {m}

FenestrationSurface:Detailed,
  SuperMarket Produce A end_b - Story ground Wall 3 FixedWindow 1, !- Name
  Window,                                 !- Surface Type
  ,                                       !- Construction Name
  SuperMarket Produce A end_b - Story ground Wall 3, !- Building Surface Name
  ,                                       !- Outside Boundary Condition Object
  ,                                       !- View Factor to Ground
  ,                                       !- Frame and Divider Name
  ,                                       !- Multiplier
  ,                                       !- Number of Vertices
  4.57199999999997, 0.0253999999999929, 1.44009438202247, !- X,Y,Z Vertex 1 {m}
  4.57199999999997, 0.0253999999999929, 0.762, !- X,Y,Z Vertex 2 {m}
  4.57199999999997, 4.54659999999999, 0.762, !- X,Y,Z Vertex 3 {m}
  4.57199999999997, 4.54659999999999, 1.44009438202247; !- X,Y,Z Vertex 4 {m}

BuildingSurface:Detailed,
  SuperMarket Produce A end_b - Story ground Wall 4, !- Name
  Wall,                                   !- Surface Type
  ,                                       !- Construction Name
  Zone SuperMarket Produce A end_b - Story ground, !- Zone Name
  SuperMarket Produce A end_b - Story ground, !- Space Name
  Surface,                                !- Outside Boundary Condition
  SuperMarket Produce B end_b - Story ground Wall 3, !- Outside Boundary Condition Object
  NoSun,                                  !- Sun Exposure
  NoWind,                                 !- Wind Exposure
  ,                                       !- View Factor to Ground
  ,                                       !- Number of Vertices
  4.57199999999997, 4.57199999999999, 6.096, !- X,Y,Z Vertex 1 {m}
  4.57199999999997, 4.57199999999999, 0,  !- X,Y,Z Vertex 2 {m}
  -3.5527136788005e-14, 4.57199999999999, 0, !- X,Y,Z Vertex 3 {m}
  -3.5527136788005e-14, 4.57199999999999, 6.096; !- X,Y,Z Vertex 4 {m}

Zone,
  Zone SuperMarket Produce B  - Story ground, !- Name
  -0,                                     !- Direction of Relative North {deg}
  26.124570827984,                        !- X Origin {m}
  -21.8244543073497,                      !- Y Origin {m}
  0,                                      !- Z Origin {m}
  ,                                       !- Type
  1,                                      !- Multiplier
  ,                                       !- Ceiling Height {m}
  ,                                       !- Volume {m3}
  ,                                       !- Floor Area {m2}
  ,                                       !- Zone Inside Convection Algorithm
  ,                                       !- Zone Outside Convection Algorithm
  Yes;                                    !- Part of Total Floor Area

Space,
  SuperMarket Produce B  - Story ground,  !- Name
  Zone SuperMarket Produce B  - Story ground, !- Zone Name
  ,                                       !- Ceiling Height {m}
  ,                                       !- Volume {m3}
  ,                                       !- Floor Area {m2}
  SuperMarket Produce;                    !- Space Type

BuildingSurface:Detailed,
  SuperMarket Produce B  - Story ground Floor 1, !- Name
  Floor,                                  !- Surface Type
  ,                                       !- Construction Name
  Zone SuperMarket Produce B  - Story ground, !- Zone Name
  SuperMarket Produce B  - Story ground,  !- Space Name
  Ground,                                 !- Outside Boundary Condition
  ,                                       !- Outside Boundary Condition Object
  NoSun,                                  !- Sun Exposure
  NoWind,                                 !- Wind Exposure
  ,                                       !- View Factor to Ground
  ,                                       !- Number of Vertices
  1.4210854715202e-14, -7.105427357601e-15, 0, !- X,Y,Z Vertex 1 {m}
  1.4210854715202e-14, 43.6489086146994, 0, !- X,Y,Z Vertex 2 {m}
  8.89811063304051, 43.6489086146994, 0,  !- X,Y,Z Vertex 3 {m}
  8.89811063304051, -7.105427357601e-15, 0; !- X,Y,Z Vertex 4 {m}

BuildingSurface:Detailed,
  SuperMarket Produce B  - Story ground RoofCeiling 1, !- Name
  Roof,                                   !- Surface Type
  ,                                       !- Construction Name
  Zone SuperMarket Produce B  - Story ground, !- Zone Name
  SuperMarket Produce B  - Story ground,  !- Space Name
  Outdoors,                               !- Outside Boundary Condition
  ,                                       !- Outside Boundary Condition Object
  SunExposed,                             !- Sun Exposure
  WindExposed,                            !- Wind Exposure
  ,                                       !- View Factor to Ground
  ,                                       !- Number of Vertices
  8.89811063304051, -7.105427357601e-15, 6.096, !- X,Y,Z Vertex 1 {m}
  8.89811063304051, 43.6489086146994, 6.096, !- X,Y,Z Vertex 2 {m}
  1.4210854715202e-14, 43.6489086146994, 6.096, !- X,Y,Z Vertex 3 {m}
  1.4210854715202e-14, -7.105427357601e-15, 6.096; !- X,Y,Z Vertex 4 {m}

BuildingSurface:Detailed,
  SuperMarket Produce B  - Story ground Wall 1, !- Name
  Wall,                                   !- Surface Type
  ,                                       !- Construction Name
  Zone SuperMarket Produce B  - Story ground, !- Zone Name
  SuperMarket Produce B  - Story ground,  !- Space Name
  Surface,                                !- Outside Boundary Condition
  SuperMarket Produce C  - Story ground Wall 3, !- Outside Boundary Condition Object
  NoSun,                                  !- Sun Exposure
  NoWind,                                 !- Wind Exposure
  ,                                       !- View Factor to Ground
  ,                                       !- Number of Vertices
  8.89811063304051, 43.6489086146994, 6.096, !- X,Y,Z Vertex 1 {m}
  8.89811063304051, 43.6489086146994, 0,  !- X,Y,Z Vertex 2 {m}
  1.4210854715202e-14, 43.6489086146994, 0, !- X,Y,Z Vertex 3 {m}
  1.4210854715202e-14, 43.6489086146994, 6.096; !- X,Y,Z Vertex 4 {m}

BuildingSurface:Detailed,
  SuperMarket Produce B  - Story ground Wall 2, !- Name
  Wall,                                   !- Surface Type
  ,                                       !- Construction Name
  Zone SuperMarket Produce B  - Story ground, !- Zone Name
  SuperMarket Produce B  - Story ground,  !- Space Name
  Surface,                                !- Outside Boundary Condition
  SuperMarket Produce A  - Story ground Wall 2, !- Outside Boundary Condition Object
  NoSun,                                  !- Sun Exposure
  NoWind,                                 !- Wind Exposure
  ,                                       !- View Factor to Ground
  ,                                       !- Number of Vertices
  1.4210854715202e-14, -1.06581410364015e-14, 6.096, !- X,Y,Z Vertex 1 {m}
  1.4210854715202e-14, -1.06581410364015e-14, 0, !- X,Y,Z Vertex 2 {m}
  8.89811063304051, -1.06581410364015e-14, 0, !- X,Y,Z Vertex 3 {m}
  8.89811063304051, -1.06581410364015e-14, 6.096; !- X,Y,Z Vertex 4 {m}

BuildingSurface:Detailed,
  SuperMarket Produce B  - Story ground Wall 3, !- Name
  Wall,                                   !- Surface Type
  ,                                       !- Construction Name
  Zone SuperMarket Produce B  - Story ground, !- Zone Name
  SuperMarket Produce B  - Story ground,  !- Space Name
  Surface,                                !- Outside Boundary Condition
  SuperMarket Produce B end_b - Story ground Wall 1, !- Outside Boundary Condition Object
  NoSun,                                  !- Sun Exposure
  NoWind,                                 !- Wind Exposure
  ,                                       !- View Factor to Ground
  ,                                       !- Number of Vertices
  8.89811063304046, -7.105427357601e-15, 6.096, !- X,Y,Z Vertex 1 {m}
  8.89811063304046, -7.105427357601e-15, 0, !- X,Y,Z Vertex 2 {m}
  8.89811063304046, 43.6489086146994, 0,  !- X,Y,Z Vertex 3 {m}
  8.89811063304046, 43.6489086146994, 6.096; !- X,Y,Z Vertex 4 {m}

BuildingSurface:Detailed,
  SuperMarket Produce B  - Story ground Wall 4, !- Name
  Wall,                                   !- Surface Type
  ,                                       !- Construction Name
  Zone SuperMarket Produce B  - Story ground, !- Zone Name
  SuperMarket Produce B  - Story ground,  !- Space Name
  Surface,                                !- Outside Boundary Condition
  SuperMarket DryStorage B  - Story ground Wall 4, !- Outside Boundary Condition Object
  NoSun,                                  !- Sun Exposure
  NoWind,                                 !- Wind Exposure
  ,                                       !- View Factor to Ground
  ,                                       !- Number of Vertices
  -3.19744231092045e-14, 43.6489086146994, 6.096, !- X,Y,Z Vertex 1 {m}
  -3.19744231092045e-14, 43.6489086146994, 0, !- X,Y,Z Vertex 2 {m}
  -3.19744231092045e-14, -7.105427357601e-15, 0, !- X,Y,Z Vertex 3 {m}
  -3.19744231092045e-14, -7.105427357601e-15, 6.096; !- X,Y,Z Vertex 4 {m}

Zone,
  Zone SuperMarket Produce B end_b - Story ground, !- Name
  -0,                                     !- Direction of Relative North {deg}
  35.0226814610245,                       !- X Origin {m}
  -21.8244543073497,                      !- Y Origin {m}
  0,                                      !- Z Origin {m}
  ,                                       !- Type
  1,                                      !- Multiplier
  ,                                       !- Ceiling Height {m}
  ,                                       !- Volume {m3}
  ,                                       !- Floor Area {m2}
  ,                                       !- Zone Inside Convection Algorithm
  ,                                       !- Zone Outside Convection Algorithm
  Yes;                                    !- Part of Total Floor Area

Space,
  SuperMarket Produce B end_b - Story ground, !- Name
  Zone SuperMarket Produce B end_b - Story ground, !- Zone Name
  ,                                       !- Ceiling Height {m}
  ,                                       !- Volume {m3}
  ,                                       !- Floor Area {m2}
  SuperMarket Produce;                    !- Space Type

BuildingSurface:Detailed,
  SuperMarket Produce B end_b - Story ground Floor 1, !- Name
  Floor,                                  !- Surface Type
  ,                                       !- Construction Name
  Zone SuperMarket Produce B end_b - Story ground, !- Zone Name
  SuperMarket Produce B end_b - Story ground, !- Space Name
  Ground,                                 !- Outside Boundary Condition
  ,                                       !- Outside Boundary Condition Object
  NoSun,                                  !- Sun Exposure
  NoWind,                                 !- Wind Exposure
  ,                                       !- View Factor to Ground
  ,                                       !- Number of Vertices
  -3.5527136788005e-14, -7.105427357601e-15, 0, !- X,Y,Z Vertex 1 {m}
  -3.5527136788005e-14, 43.6489086146994, 0, !- X,Y,Z Vertex 2 {m}
  4.57199999999997, 43.6489086146994, 0,  !- X,Y,Z Vertex 3 {m}
  4.57199999999997, -7.105427357601e-15, 0; !- X,Y,Z Vertex 4 {m}

BuildingSurface:Detailed,
  SuperMarket Produce B end_b - Story ground RoofCeiling 1, !- Name
  Roof,                                   !- Surface Type
  ,                                       !- Construction Name
  Zone SuperMarket Produce B end_b - Story ground, !- Zone Name
  SuperMarket Produce B end_b - Story ground, !- Space Name
  Outdoors,                               !- Outside Boundary Condition
  ,                                       !- Outside Boundary Condition Object
  SunExposed,                             !- Sun Exposure
  WindExposed,                            !- Wind Exposure
  ,                                       !- View Factor to Ground
  ,                                       !- Number of Vertices
  4.57199999999997, -7.105427357601e-15, 6.096, !- X,Y,Z Vertex 1 {m}
  4.57199999999997, 43.6489086146994, 6.096, !- X,Y,Z Vertex 2 {m}
  -3.5527136788005e-14, 43.6489086146994, 6.096, !- X,Y,Z Vertex 3 {m}
  -3.5527136788005e-14, -7.105427357601e-15, 6.096; !- X,Y,Z Vertex 4 {m}

BuildingSurface:Detailed,
  SuperMarket Produce B end_b - Story ground Wall 1, !- Name
  Wall,                                   !- Surface Type
  ,                                       !- Construction Name
  Zone SuperMarket Produce B end_b - Story ground, !- Zone Name
  SuperMarket Produce B end_b - Story ground, !- Space Name
  Surface,                                !- Outside Boundary Condition
  SuperMarket Produce B  - Story ground Wall 3, !- Outside Boundary Condition Object
  NoSun,                                  !- Sun Exposure
  NoWind,                                 !- Wind Exposure
  ,                                       !- View Factor to Ground
  ,                                       !- Number of Vertices
  -3.5527136788005e-14, 43.6489086146994, 6.096, !- X,Y,Z Vertex 1 {m}
  -3.5527136788005e-14, 43.6489086146994, 0, !- X,Y,Z Vertex 2 {m}
  -3.5527136788005e-14, -7.105427357601e-15, 0, !- X,Y,Z Vertex 3 {m}
  -3.5527136788005e-14, -7.105427357601e-15, 6.096; !- X,Y,Z Vertex 4 {m}

BuildingSurface:Detailed,
  SuperMarket Produce B end_b - Story ground Wall 2, !- Name
  Wall,                                   !- Surface Type
  ,                                       !- Construction Name
  Zone SuperMarket Produce B end_b - Story ground, !- Zone Name
  SuperMarket Produce B end_b - Story ground, !- Space Name
  Surface,                                !- Outside Boundary Condition
  SuperMarket Produce C end_b - Story ground Wall 4, !- Outside Boundary Condition Object
  NoSun,                                  !- Sun Exposure
  NoWind,                                 !- Wind Exposure
  ,                                       !- View Factor to Ground
  ,                                       !- Number of Vertices
  4.57199999999997, 43.6489086146994, 6.096, !- X,Y,Z Vertex 1 {m}
  4.57199999999997, 43.6489086146994, 0,  !- X,Y,Z Vertex 2 {m}
  -3.5527136788005e-14, 43.6489086146994, 0, !- X,Y,Z Vertex 3 {m}
  -3.5527136788005e-14, 43.6489086146994, 6.096; !- X,Y,Z Vertex 4 {m}

BuildingSurface:Detailed,
  SuperMarket Produce B end_b - Story ground Wall 3, !- Name
  Wall,                                   !- Surface Type
  ,                                       !- Construction Name
  Zone SuperMarket Produce B end_b - Story ground, !- Zone Name
  SuperMarket Produce B end_b - Story ground, !- Space Name
  Surface,                                !- Outside Boundary Condition
  SuperMarket Produce A end_b - Story ground Wall 4, !- Outside Boundary Condition Object
  NoSun,                                  !- Sun Exposure
  NoWind,                                 !- Wind Exposure
  ,                                       !- View Factor to Ground
  ,                                       !- Number of Vertices
  -3.5527136788005e-14, -1.06581410364015e-14, 6.096, !- X,Y,Z Vertex 1 {m}
  -3.5527136788005e-14, -1.06581410364015e-14, 0, !- X,Y,Z Vertex 2 {m}
  4.57199999999997, -1.06581410364015e-14, 0, !- X,Y,Z Vertex 3 {m}
  4.57199999999997, -1.06581410364015e-14, 6.096; !- X,Y,Z Vertex 4 {m}

BuildingSurface:Detailed,
  SuperMarket Produce B end_b - Story ground Wall 4, !- Name
  Wall,                                   !- Surface Type
  ,                                       !- Construction Name
  Zone SuperMarket Produce B end_b - Story ground, !- Zone Name
  SuperMarket Produce B end_b - Story ground, !- Space Name
  Outdoors,                               !- Outside Boundary Condition
  ,                                       !- Outside Boundary Condition Object
  SunExposed,                             !- Sun Exposure
  WindExposed,                            !- Wind Exposure
  ,                                       !- View Factor to Ground
  ,                                       !- Number of Vertices
  4.57199999999997, 43.6489086146994, 6.096, !- X,Y,Z Vertex 1 {m}
  4.57199999999997, -7.105427357601e-15, 6.096, !- X,Y,Z Vertex 2 {m}
  4.57199999999997, -7.105427357601e-15, 0, !- X,Y,Z Vertex 3 {m}
  4.57199999999997, 43.6489086146994, 0;  !- X,Y,Z Vertex 4 {m}

FenestrationSurface:Detailed,
  SuperMarket Produce B end_b - Story ground Wall 4 FixedWindow 1, !- Name
  Window,                                 !- Surface Type
  ,                                       !- Construction Name
  SuperMarket Produce B end_b - Story ground Wall 4, !- Building Surface Name
  ,                                       !- Outside Boundary Condition Object
  ,                                       !- View Factor to Ground
  ,                                       !- Frame and Divider Name
  ,                                       !- Multiplier
  ,                                       !- Number of Vertices
  4.57199999999997, 0.0253999999999929, 1.43334132857324, !- X,Y,Z Vertex 1 {m}
  4.57199999999997, 0.0253999999999929, 0.762, !- X,Y,Z Vertex 2 {m}
  4.57199999999997, 43.6235086146994, 0.762, !- X,Y,Z Vertex 3 {m}
  4.57199999999997, 43.6235086146994, 1.43334132857324; !- X,Y,Z Vertex 4 {m}

Zone,
  Zone SuperMarket Produce C  - Story ground, !- Name
  -0,                                     !- Direction of Relative North {deg}
  26.124570827984,                        !- X Origin {m}
  21.8244543073497,                       !- Y Origin {m}
  0,                                      !- Z Origin {m}
  ,                                       !- Type
  1,                                      !- Multiplier
  ,                                       !- Ceiling Height {m}
  ,                                       !- Volume {m3}
  ,                                       !- Floor Area {m2}
  ,                                       !- Zone Inside Convection Algorithm
  ,                                       !- Zone Outside Convection Algorithm
  Yes;                                    !- Part of Total Floor Area

Space,
  SuperMarket Produce C  - Story ground,  !- Name
  Zone SuperMarket Produce C  - Story ground, !- Zone Name
  ,                                       !- Ceiling Height {m}
  ,                                       !- Volume {m3}
  ,                                       !- Floor Area {m2}
  SuperMarket Produce;                    !- Space Type

BuildingSurface:Detailed,
  SuperMarket Produce C  - Story ground Floor 1, !- Name
  Floor,                                  !- Surface Type
  ,                                       !- Construction Name
  Zone SuperMarket Produce C  - Story ground, !- Zone Name
  SuperMarket Produce C  - Story ground,  !- Space Name
  Ground,                                 !- Outside Boundary Condition
  ,                                       !- Outside Boundary Condition Object
  NoSun,                                  !- Sun Exposure
  NoWind,                                 !- Wind Exposure
  ,                                       !- View Factor to Ground
  ,                                       !- Number of Vertices
  1.4210854715202e-14, 7.105427357601e-15, 0, !- X,Y,Z Vertex 1 {m}
  1.4210854715202e-14, 4.57200000000001, 0, !- X,Y,Z Vertex 2 {m}
  8.89811063304051, 4.57200000000001, 0,  !- X,Y,Z Vertex 3 {m}
  8.89811063304051, 7.105427357601e-15, 0; !- X,Y,Z Vertex 4 {m}

BuildingSurface:Detailed,
  SuperMarket Produce C  - Story ground RoofCeiling 1, !- Name
  Roof,                                   !- Surface Type
  ,                                       !- Construction Name
  Zone SuperMarket Produce C  - Story ground, !- Zone Name
  SuperMarket Produce C  - Story ground,  !- Space Name
  Outdoors,                               !- Outside Boundary Condition
  ,                                       !- Outside Boundary Condition Object
  SunExposed,                             !- Sun Exposure
  WindExposed,                            !- Wind Exposure
  ,                                       !- View Factor to Ground
  ,                                       !- Number of Vertices
  8.89811063304051, 7.105427357601e-15, 6.096, !- X,Y,Z Vertex 1 {m}
  8.89811063304051, 4.57200000000001, 6.096, !- X,Y,Z Vertex 2 {m}
  1.4210854715202e-14, 4.57200000000001, 6.096, !- X,Y,Z Vertex 3 {m}
  1.4210854715202e-14, 7.105427357601e-15, 6.096; !- X,Y,Z Vertex 4 {m}

BuildingSurface:Detailed,
  SuperMarket Produce C  - Story ground Wall 1, !- Name
  Wall,                                   !- Surface Type
  ,                                       !- Construction Name
  Zone SuperMarket Produce C  - Story ground, !- Zone Name
  SuperMarket Produce C  - Story ground,  !- Space Name
  Surface,                                !- Outside Boundary Condition
  SuperMarket DryStorage C  - Story ground Wall 1, !- Outside Boundary Condition Object
  NoSun,                                  !- Sun Exposure
  NoWind,                                 !- Wind Exposure
  ,                                       !- View Factor to Ground
  ,                                       !- Number of Vertices
  -3.19744231092045e-14, 4.57200000000001, 6.096, !- X,Y,Z Vertex 1 {m}
  -3.19744231092045e-14, 4.57200000000001, 0, !- X,Y,Z Vertex 2 {m}
  -3.19744231092045e-14, 7.105427357601e-15, 0, !- X,Y,Z Vertex 3 {m}
  -3.19744231092045e-14, 7.105427357601e-15, 6.096; !- X,Y,Z Vertex 4 {m}

BuildingSurface:Detailed,
  SuperMarket Produce C  - Story ground Wall 2, !- Name
  Wall,                                   !- Surface Type
  ,                                       !- Construction Name
  Zone SuperMarket Produce C  - Story ground, !- Zone Name
  SuperMarket Produce C  - Story ground,  !- Space Name
  Outdoors,                               !- Outside Boundary Condition
  ,                                       !- Outside Boundary Condition Object
  SunExposed,                             !- Sun Exposure
  WindExposed,                            !- Wind Exposure
  ,                                       !- View Factor to Ground
  ,                                       !- Number of Vertices
  1.4210854715202e-14, 4.57200000000001, 6.096, !- X,Y,Z Vertex 1 {m}
  8.89811063304051, 4.57200000000001, 6.096, !- X,Y,Z Vertex 2 {m}
  8.89811063304051, 4.57200000000001, 0,  !- X,Y,Z Vertex 3 {m}
  1.4210854715202e-14, 4.57200000000001, 0; !- X,Y,Z Vertex 4 {m}

FenestrationSurface:Detailed,
  SuperMarket Produce C  - Story ground Wall 2 FixedWindow 1, !- Name
  Window,                                 !- Surface Type
  ,                                       !- Construction Name
  SuperMarket Produce C  - Story ground Wall 2, !- Building Surface Name
  ,                                       !- Outside Boundary Condition Object
  ,                                       !- View Factor to Ground
  ,                                       !- Frame and Divider Name
  ,                                       !- Multiplier
  ,                                       !- Number of Vertices
  8.87271063304051, 4.57200000000001, 1.43641026019916, !- X,Y,Z Vertex 1 {m}
  8.87271063304051, 4.57200000000001, 0.762, !- X,Y,Z Vertex 2 {m}
  0.0254000000000154, 4.57200000000001, 0.762, !- X,Y,Z Vertex 3 {m}
  0.0254000000000154, 4.57200000000001, 1.43641026019916; !- X,Y,Z Vertex 4 {m}

BuildingSurface:Detailed,
  SuperMarket Produce C  - Story ground Wall 3, !- Name
  Wall,                                   !- Surface Type
  ,                                       !- Construction Name
  Zone SuperMarket Produce C  - Story ground, !- Zone Name
  SuperMarket Produce C  - Story ground,  !- Space Name
  Surface,                                !- Outside Boundary Condition
  SuperMarket Produce B  - Story ground Wall 1, !- Outside Boundary Condition Object
  NoSun,                                  !- Sun Exposure
  NoWind,                                 !- Wind Exposure
  ,                                       !- View Factor to Ground
  ,                                       !- Number of Vertices
  1.4210854715202e-14, 7.105427357601e-15, 6.096, !- X,Y,Z Vertex 1 {m}
  1.4210854715202e-14, 7.105427357601e-15, 0, !- X,Y,Z Vertex 2 {m}
  8.89811063304051, 7.105427357601e-15, 0, !- X,Y,Z Vertex 3 {m}
  8.89811063304051, 7.105427357601e-15, 6.096; !- X,Y,Z Vertex 4 {m}

BuildingSurface:Detailed,
  SuperMarket Produce C  - Story ground Wall 4, !- Name
  Wall,                                   !- Surface Type
  ,                                       !- Construction Name
  Zone SuperMarket Produce C  - Story ground, !- Zone Name
  SuperMarket Produce C  - Story ground,  !- Space Name
  Surface,                                !- Outside Boundary Condition
  SuperMarket Produce C end_b - Story ground Wall 1, !- Outside Boundary Condition Object
  NoSun,                                  !- Sun Exposure
  NoWind,                                 !- Wind Exposure
  ,                                       !- View Factor to Ground
  ,                                       !- Number of Vertices
  8.89811063304046, 7.105427357601e-15, 6.096, !- X,Y,Z Vertex 1 {m}
  8.89811063304046, 7.105427357601e-15, 0, !- X,Y,Z Vertex 2 {m}
  8.89811063304046, 4.57200000000001, 0,  !- X,Y,Z Vertex 3 {m}
  8.89811063304046, 4.57200000000001, 6.096; !- X,Y,Z Vertex 4 {m}

Zone,
  Zone SuperMarket Produce C end_b - Story ground, !- Name
  -0,                                     !- Direction of Relative North {deg}
  35.0226814610245,                       !- X Origin {m}
  21.8244543073497,                       !- Y Origin {m}
  0,                                      !- Z Origin {m}
  ,                                       !- Type
  1,                                      !- Multiplier
  ,                                       !- Ceiling Height {m}
  ,                                       !- Volume {m3}
  ,                                       !- Floor Area {m2}
  ,                                       !- Zone Inside Convection Algorithm
  ,                                       !- Zone Outside Convection Algorithm
  Yes;                                    !- Part of Total Floor Area

Space,
  SuperMarket Produce C end_b - Story ground, !- Name
  Zone SuperMarket Produce C end_b - Story ground, !- Zone Name
  ,                                       !- Ceiling Height {m}
  ,                                       !- Volume {m3}
  ,                                       !- Floor Area {m2}
  SuperMarket Produce;                    !- Space Type

BuildingSurface:Detailed,
  SuperMarket Produce C end_b - Story ground Floor 1, !- Name
  Floor,                                  !- Surface Type
  ,                                       !- Construction Name
  Zone SuperMarket Produce C end_b - Story ground, !- Zone Name
  SuperMarket Produce C end_b - Story ground, !- Space Name
  Ground,                                 !- Outside Boundary Condition
  ,                                       !- Outside Boundary Condition Object
  NoSun,                                  !- Sun Exposure
  NoWind,                                 !- Wind Exposure
  ,                                       !- View Factor to Ground
  ,                                       !- Number of Vertices
  -3.5527136788005e-14, 7.105427357601e-15, 0, !- X,Y,Z Vertex 1 {m}
  -3.5527136788005e-14, 4.57200000000001, 0, !- X,Y,Z Vertex 2 {m}
  4.57199999999997, 4.57200000000001, 0,  !- X,Y,Z Vertex 3 {m}
  4.57199999999997, 7.105427357601e-15, 0; !- X,Y,Z Vertex 4 {m}

BuildingSurface:Detailed,
  SuperMarket Produce C end_b - Story ground RoofCeiling 1, !- Name
  Roof,                                   !- Surface Type
  ,                                       !- Construction Name
  Zone SuperMarket Produce C end_b - Story ground, !- Zone Name
  SuperMarket Produce C end_b - Story ground, !- Space Name
  Outdoors,                               !- Outside Boundary Condition
  ,                                       !- Outside Boundary Condition Object
  SunExposed,                             !- Sun Exposure
  WindExposed,                            !- Wind Exposure
  ,                                       !- View Factor to Ground
  ,                                       !- Number of Vertices
  4.57199999999997, 7.105427357601e-15, 6.096, !- X,Y,Z Vertex 1 {m}
  4.57199999999997, 4.57200000000001, 6.096, !- X,Y,Z Vertex 2 {m}
  -3.5527136788005e-14, 4.57200000000001, 6.096, !- X,Y,Z Vertex 3 {m}
  -3.5527136788005e-14, 7.105427357601e-15, 6.096; !- X,Y,Z Vertex 4 {m}

BuildingSurface:Detailed,
  SuperMarket Produce C end_b - Story ground Wall 1, !- Name
  Wall,                                   !- Surface Type
  ,                                       !- Construction Name
  Zone SuperMarket Produce C end_b - Story ground, !- Zone Name
  SuperMarket Produce C end_b - Story ground, !- Space Name
  Surface,                                !- Outside Boundary Condition
  SuperMarket Produce C  - Story ground Wall 4, !- Outside Boundary Condition Object
  NoSun,                                  !- Sun Exposure
  NoWind,                                 !- Wind Exposure
  ,                                       !- View Factor to Ground
  ,                                       !- Number of Vertices
  -3.5527136788005e-14, 4.57200000000001, 6.096, !- X,Y,Z Vertex 1 {m}
  -3.5527136788005e-14, 4.57200000000001, 0, !- X,Y,Z Vertex 2 {m}
  -3.5527136788005e-14, 7.105427357601e-15, 0, !- X,Y,Z Vertex 3 {m}
  -3.5527136788005e-14, 7.105427357601e-15, 6.096; !- X,Y,Z Vertex 4 {m}

BuildingSurface:Detailed,
  SuperMarket Produce C end_b - Story ground Wall 2, !- Name
  Wall,                                   !- Surface Type
  ,                                       !- Construction Name
  Zone SuperMarket Produce C end_b - Story ground, !- Zone Name
  SuperMarket Produce C end_b - Story ground, !- Space Name
  Outdoors,                               !- Outside Boundary Condition
  ,                                       !- Outside Boundary Condition Object
  SunExposed,                             !- Sun Exposure
  WindExposed,                            !- Wind Exposure
  ,                                       !- View Factor to Ground
  ,                                       !- Number of Vertices
  4.57199999999997, 4.57200000000001, 6.096, !- X,Y,Z Vertex 1 {m}
  4.57199999999997, 7.105427357601e-15, 6.096, !- X,Y,Z Vertex 2 {m}
  4.57199999999997, 7.105427357601e-15, 0, !- X,Y,Z Vertex 3 {m}
  4.57199999999997, 4.57200000000001, 0;  !- X,Y,Z Vertex 4 {m}

FenestrationSurface:Detailed,
  SuperMarket Produce C end_b - Story ground Wall 2 FixedWindow 1, !- Name
  Window,                                 !- Surface Type
  ,                                       !- Construction Name
  SuperMarket Produce C end_b - Story ground Wall 2, !- Building Surface Name
  ,                                       !- Outside Boundary Condition Object
  ,                                       !- View Factor to Ground
  ,                                       !- Frame and Divider Name
  ,                                       !- Multiplier
  ,                                       !- Number of Vertices
  4.57199999999997, 0.0254000000000071, 1.44009438202247, !- X,Y,Z Vertex 1 {m}
  4.57199999999997, 0.0254000000000071, 0.762, !- X,Y,Z Vertex 2 {m}
  4.57199999999997, 4.54660000000001, 0.762, !- X,Y,Z Vertex 3 {m}
  4.57199999999997, 4.54660000000001, 1.44009438202247; !- X,Y,Z Vertex 4 {m}

BuildingSurface:Detailed,
  SuperMarket Produce C end_b - Story ground Wall 3, !- Name
  Wall,                                   !- Surface Type
  ,                                       !- Construction Name
  Zone SuperMarket Produce C end_b - Story ground, !- Zone Name
  SuperMarket Produce C end_b - Story ground, !- Space Name
  Outdoors,                               !- Outside Boundary Condition
  ,                                       !- Outside Boundary Condition Object
  SunExposed,                             !- Sun Exposure
  WindExposed,                            !- Wind Exposure
  ,                                       !- View Factor to Ground
  ,                                       !- Number of Vertices
  -3.5527136788005e-14, 4.57200000000001, 6.096, !- X,Y,Z Vertex 1 {m}
  4.57199999999997, 4.57200000000001, 6.096, !- X,Y,Z Vertex 2 {m}
  4.57199999999997, 4.57200000000001, 0,  !- X,Y,Z Vertex 3 {m}
  -3.5527136788005e-14, 4.57200000000001, 0; !- X,Y,Z Vertex 4 {m}

FenestrationSurface:Detailed,
  SuperMarket Produce C end_b - Story ground Wall 3 FixedWindow 1, !- Name
  Window,                                 !- Surface Type
  ,                                       !- Construction Name
  SuperMarket Produce C end_b - Story ground Wall 3, !- Building Surface Name
  ,                                       !- Outside Boundary Condition Object
  ,                                       !- View Factor to Ground
  ,                                       !- Frame and Divider Name
  ,                                       !- Multiplier
  ,                                       !- Number of Vertices
  4.54659999999997, 4.57200000000001, 1.44009438202247, !- X,Y,Z Vertex 1 {m}
  4.54659999999997, 4.57200000000001, 0.762, !- X,Y,Z Vertex 2 {m}
  0.0253999999999639, 4.57200000000001, 0.762, !- X,Y,Z Vertex 3 {m}
  0.0253999999999639, 4.57200000000001, 1.44009438202247; !- X,Y,Z Vertex 4 {m}

BuildingSurface:Detailed,
  SuperMarket Produce C end_b - Story ground Wall 4, !- Name
  Wall,                                   !- Surface Type
  ,                                       !- Construction Name
  Zone SuperMarket Produce C end_b - Story ground, !- Zone Name
  SuperMarket Produce C end_b - Story ground, !- Space Name
  Surface,                                !- Outside Boundary Condition
  SuperMarket Produce B end_b - Story ground Wall 2, !- Outside Boundary Condition Object
  NoSun,                                  !- Sun Exposure
  NoWind,                                 !- Wind Exposure
  ,                                       !- View Factor to Ground
  ,                                       !- Number of Vertices
  -3.5527136788005e-14, 7.105427357601e-15, 6.096, !- X,Y,Z Vertex 1 {m}
  -3.5527136788005e-14, 7.105427357601e-15, 0, !- X,Y,Z Vertex 2 {m}
  4.57199999999997, 7.105427357601e-15, 0, !- X,Y,Z Vertex 3 {m}
  4.57199999999997, 7.105427357601e-15, 6.096; !- X,Y,Z Vertex 4 {m}

Zone,
  Zone SuperMarket Restroom A  - Story ground, !- Name
  -0,                                     !- Direction of Relative North {deg}
  8.7266677940098,                        !- X Origin {m}
  -26.3964543073497,                      !- Y Origin {m}
  0,                                      !- Z Origin {m}
  ,                                       !- Type
  1,                                      !- Multiplier
  ,                                       !- Ceiling Height {m}
  ,                                       !- Volume {m3}
  ,                                       !- Floor Area {m2}
  ,                                       !- Zone Inside Convection Algorithm
  ,                                       !- Zone Outside Convection Algorithm
  Yes;                                    !- Part of Total Floor Area

Space,
  SuperMarket Restroom A  - Story ground, !- Name
  Zone SuperMarket Restroom A  - Story ground, !- Zone Name
  ,                                       !- Ceiling Height {m}
  ,                                       !- Volume {m3}
  ,                                       !- Floor Area {m2}
  SuperMarket Restroom;                   !- Space Type

SpaceList,
  SuperMarket Restroom,                   !- Name
  SuperMarket Restroom C  - Story ground, !- Space Name 1
  SuperMarket Restroom B  - Story ground, !- Space Name 2
  SuperMarket Restroom A  - Story ground; !- Space Name 3

BuildingSurface:Detailed,
  SuperMarket Restroom A  - Story ground Floor 1, !- Name
  Floor,                                  !- Surface Type
  ,                                       !- Construction Name
  Zone SuperMarket Restroom A  - Story ground, !- Zone Name
  SuperMarket Restroom A  - Story ground, !- Space Name
  Ground,                                 !- Outside Boundary Condition
  ,                                       !- Outside Boundary Condition Object
  NoSun,                                  !- Sun Exposure
  NoWind,                                 !- Wind Exposure
  ,                                       !- View Factor to Ground
  ,                                       !- Number of Vertices
  -5.32907051820075e-15, -7.105427357601e-15, 0, !- X,Y,Z Vertex 1 {m}
  -5.32907051820075e-15, 4.57199999999999, 0, !- X,Y,Z Vertex 2 {m}
  1.18784044383074, 4.57199999999999, 0,  !- X,Y,Z Vertex 3 {m}
  1.18784044383074, -7.105427357601e-15, 0; !- X,Y,Z Vertex 4 {m}

BuildingSurface:Detailed,
  SuperMarket Restroom A  - Story ground RoofCeiling 1, !- Name
  Roof,                                   !- Surface Type
  ,                                       !- Construction Name
  Zone SuperMarket Restroom A  - Story ground, !- Zone Name
  SuperMarket Restroom A  - Story ground, !- Space Name
  Outdoors,                               !- Outside Boundary Condition
  ,                                       !- Outside Boundary Condition Object
  SunExposed,                             !- Sun Exposure
  WindExposed,                            !- Wind Exposure
  ,                                       !- View Factor to Ground
  ,                                       !- Number of Vertices
  1.18784044383074, -7.105427357601e-15, 6.096, !- X,Y,Z Vertex 1 {m}
  1.18784044383074, 4.57199999999999, 6.096, !- X,Y,Z Vertex 2 {m}
  -5.32907051820075e-15, 4.57199999999999, 6.096, !- X,Y,Z Vertex 3 {m}
  -5.32907051820075e-15, -7.105427357601e-15, 6.096; !- X,Y,Z Vertex 4 {m}

BuildingSurface:Detailed,
  SuperMarket Restroom A  - Story ground Wall 1, !- Name
  Wall,                                   !- Surface Type
  ,                                       !- Construction Name
  Zone SuperMarket Restroom A  - Story ground, !- Zone Name
  SuperMarket Restroom A  - Story ground, !- Space Name
  Surface,                                !- Outside Boundary Condition
  SuperMarket Elec/MechRoom A  - Story ground Wall 4, !- Outside Boundary Condition Object
  NoSun,                                  !- Sun Exposure
  NoWind,                                 !- Wind Exposure
  ,                                       !- View Factor to Ground
  ,                                       !- Number of Vertices
  0, 4.57199999999999, 6.096,             !- X,Y,Z Vertex 1 {m}
  0, 4.57199999999999, 0,                 !- X,Y,Z Vertex 2 {m}
  0, -7.105427357601e-15, 0,              !- X,Y,Z Vertex 3 {m}
  0, -7.105427357601e-15, 6.096;          !- X,Y,Z Vertex 4 {m}

BuildingSurface:Detailed,
  SuperMarket Restroom A  - Story ground Wall 2, !- Name
  Wall,                                   !- Surface Type
  ,                                       !- Construction Name
  Zone SuperMarket Restroom A  - Story ground, !- Zone Name
  SuperMarket Restroom A  - Story ground, !- Space Name
  Surface,                                !- Outside Boundary Condition
  SuperMarket Restroom B  - Story ground Wall 3, !- Outside Boundary Condition Object
  NoSun,                                  !- Sun Exposure
  NoWind,                                 !- Wind Exposure
  ,                                       !- View Factor to Ground
  ,                                       !- Number of Vertices
  1.18784044383074, 4.57199999999999, 6.096, !- X,Y,Z Vertex 1 {m}
  1.18784044383074, 4.57199999999999, 0,  !- X,Y,Z Vertex 2 {m}
  -5.32907051820075e-15, 4.57199999999999, 0, !- X,Y,Z Vertex 3 {m}
  -5.32907051820075e-15, 4.57199999999999, 6.096; !- X,Y,Z Vertex 4 {m}

BuildingSurface:Detailed,
  SuperMarket Restroom A  - Story ground Wall 3, !- Name
  Wall,                                   !- Surface Type
  ,                                       !- Construction Name
  Zone SuperMarket Restroom A  - Story ground, !- Zone Name
  SuperMarket Restroom A  - Story ground, !- Space Name
  Outdoors,                               !- Outside Boundary Condition
  ,                                       !- Outside Boundary Condition Object
  SunExposed,                             !- Sun Exposure
  WindExposed,                            !- Wind Exposure
  ,                                       !- View Factor to Ground
  ,                                       !- Number of Vertices
  1.18784044383074, -7.105427357601e-15, 6.096, !- X,Y,Z Vertex 1 {m}
  -5.32907051820075e-15, -7.105427357601e-15, 6.096, !- X,Y,Z Vertex 2 {m}
  -5.32907051820075e-15, -7.105427357601e-15, 0, !- X,Y,Z Vertex 3 {m}
  1.18784044383074, -7.105427357601e-15, 0; !- X,Y,Z Vertex 4 {m}

FenestrationSurface:Detailed,
  SuperMarket Restroom A  - Story ground Wall 3 FixedWindow 1, !- Name
  Window,                                 !- Surface Type
  ,                                       !- Construction Name
  SuperMarket Restroom A  - Story ground Wall 3, !- Building Surface Name
  ,                                       !- Outside Boundary Condition Object
  ,                                       !- View Factor to Ground
  ,                                       !- Frame and Divider Name
  ,                                       !- Multiplier
  ,                                       !- Number of Vertices
  0.0253999999999947, -7.105427357601e-15, 1.4625188710189, !- X,Y,Z Vertex 1 {m}
  0.0253999999999947, -7.105427357601e-15, 0.762, !- X,Y,Z Vertex 2 {m}
  1.16244044383074, -7.105427357601e-15, 0.762, !- X,Y,Z Vertex 3 {m}
  1.16244044383074, -7.105427357601e-15, 1.4625188710189; !- X,Y,Z Vertex 4 {m}

BuildingSurface:Detailed,
  SuperMarket Restroom A  - Story ground Wall 4, !- Name
  Wall,                                   !- Surface Type
  ,                                       !- Construction Name
  Zone SuperMarket Restroom A  - Story ground, !- Zone Name
  SuperMarket Restroom A  - Story ground, !- Space Name
  Surface,                                !- Outside Boundary Condition
  SuperMarket Bakery A  - Story ground Wall 1, !- Outside Boundary Condition Object
  NoSun,                                  !- Sun Exposure
  NoWind,                                 !- Wind Exposure
  ,                                       !- View Factor to Ground
  ,                                       !- Number of Vertices
  1.18784044383074, -7.105427357601e-15, 6.096, !- X,Y,Z Vertex 1 {m}
  1.18784044383074, -7.105427357601e-15, 0, !- X,Y,Z Vertex 2 {m}
  1.18784044383074, 4.57199999999999, 0,  !- X,Y,Z Vertex 3 {m}
  1.18784044383074, 4.57199999999999, 6.096; !- X,Y,Z Vertex 4 {m}

Zone,
  Zone SuperMarket Restroom B  - Story ground, !- Name
  -0,                                     !- Direction of Relative North {deg}
  8.7266677940098,                        !- X Origin {m}
  -21.8244543073497,                      !- Y Origin {m}
  0,                                      !- Z Origin {m}
  ,                                       !- Type
  1,                                      !- Multiplier
  ,                                       !- Ceiling Height {m}
  ,                                       !- Volume {m3}
  ,                                       !- Floor Area {m2}
  ,                                       !- Zone Inside Convection Algorithm
  ,                                       !- Zone Outside Convection Algorithm
  Yes;                                    !- Part of Total Floor Area

Space,
  SuperMarket Restroom B  - Story ground, !- Name
  Zone SuperMarket Restroom B  - Story ground, !- Zone Name
  ,                                       !- Ceiling Height {m}
  ,                                       !- Volume {m3}
  ,                                       !- Floor Area {m2}
  SuperMarket Restroom;                   !- Space Type

BuildingSurface:Detailed,
  SuperMarket Restroom B  - Story ground Floor 1, !- Name
  Floor,                                  !- Surface Type
  ,                                       !- Construction Name
  Zone SuperMarket Restroom B  - Story ground, !- Zone Name
  SuperMarket Restroom B  - Story ground, !- Space Name
  Ground,                                 !- Outside Boundary Condition
  ,                                       !- Outside Boundary Condition Object
  NoSun,                                  !- Sun Exposure
  NoWind,                                 !- Wind Exposure
  ,                                       !- View Factor to Ground
  ,                                       !- Number of Vertices
  -5.32907051820075e-15, -7.105427357601e-15, 0, !- X,Y,Z Vertex 1 {m}
  -5.32907051820075e-15, 43.6489086146994, 0, !- X,Y,Z Vertex 2 {m}
  1.18784044383074, 43.6489086146994, 0,  !- X,Y,Z Vertex 3 {m}
  1.18784044383074, -7.105427357601e-15, 0; !- X,Y,Z Vertex 4 {m}

BuildingSurface:Detailed,
  SuperMarket Restroom B  - Story ground RoofCeiling 1, !- Name
  Roof,                                   !- Surface Type
  ,                                       !- Construction Name
  Zone SuperMarket Restroom B  - Story ground, !- Zone Name
  SuperMarket Restroom B  - Story ground, !- Space Name
  Outdoors,                               !- Outside Boundary Condition
  ,                                       !- Outside Boundary Condition Object
  SunExposed,                             !- Sun Exposure
  WindExposed,                            !- Wind Exposure
  ,                                       !- View Factor to Ground
  ,                                       !- Number of Vertices
  1.18784044383074, -7.105427357601e-15, 6.096, !- X,Y,Z Vertex 1 {m}
  1.18784044383074, 43.6489086146994, 6.096, !- X,Y,Z Vertex 2 {m}
  -5.32907051820075e-15, 43.6489086146994, 6.096, !- X,Y,Z Vertex 3 {m}
  -5.32907051820075e-15, -7.105427357601e-15, 6.096; !- X,Y,Z Vertex 4 {m}

BuildingSurface:Detailed,
  SuperMarket Restroom B  - Story ground Wall 1, !- Name
  Wall,                                   !- Surface Type
  ,                                       !- Construction Name
  Zone SuperMarket Restroom B  - Story ground, !- Zone Name
  SuperMarket Restroom B  - Story ground, !- Space Name
  Surface,                                !- Outside Boundary Condition
  SuperMarket Elec/MechRoom B  - Story ground Wall 4, !- Outside Boundary Condition Object
  NoSun,                                  !- Sun Exposure
  NoWind,                                 !- Wind Exposure
  ,                                       !- View Factor to Ground
  ,                                       !- Number of Vertices
  0, 43.6489086146994, 6.096,             !- X,Y,Z Vertex 1 {m}
  0, 43.6489086146994, 0,                 !- X,Y,Z Vertex 2 {m}
  0, -7.105427357601e-15, 0,              !- X,Y,Z Vertex 3 {m}
  0, -7.105427357601e-15, 6.096;          !- X,Y,Z Vertex 4 {m}

BuildingSurface:Detailed,
  SuperMarket Restroom B  - Story ground Wall 2, !- Name
  Wall,                                   !- Surface Type
  ,                                       !- Construction Name
  Zone SuperMarket Restroom B  - Story ground, !- Zone Name
  SuperMarket Restroom B  - Story ground, !- Space Name
  Surface,                                !- Outside Boundary Condition
  SuperMarket Restroom C  - Story ground Wall 3, !- Outside Boundary Condition Object
  NoSun,                                  !- Sun Exposure
  NoWind,                                 !- Wind Exposure
  ,                                       !- View Factor to Ground
  ,                                       !- Number of Vertices
  1.18784044383074, 43.6489086146994, 6.096, !- X,Y,Z Vertex 1 {m}
  1.18784044383074, 43.6489086146994, 0,  !- X,Y,Z Vertex 2 {m}
  -5.32907051820075e-15, 43.6489086146994, 0, !- X,Y,Z Vertex 3 {m}
  -5.32907051820075e-15, 43.6489086146994, 6.096; !- X,Y,Z Vertex 4 {m}

BuildingSurface:Detailed,
  SuperMarket Restroom B  - Story ground Wall 3, !- Name
  Wall,                                   !- Surface Type
  ,                                       !- Construction Name
  Zone SuperMarket Restroom B  - Story ground, !- Zone Name
  SuperMarket Restroom B  - Story ground, !- Space Name
  Surface,                                !- Outside Boundary Condition
  SuperMarket Restroom A  - Story ground Wall 2, !- Outside Boundary Condition Object
  NoSun,                                  !- Sun Exposure
  NoWind,                                 !- Wind Exposure
  ,                                       !- View Factor to Ground
  ,                                       !- Number of Vertices
  -5.32907051820075e-15, -1.06581410364015e-14, 6.096, !- X,Y,Z Vertex 1 {m}
  -5.32907051820075e-15, -1.06581410364015e-14, 0, !- X,Y,Z Vertex 2 {m}
  1.18784044383074, -1.06581410364015e-14, 0, !- X,Y,Z Vertex 3 {m}
  1.18784044383074, -1.06581410364015e-14, 6.096; !- X,Y,Z Vertex 4 {m}

BuildingSurface:Detailed,
  SuperMarket Restroom B  - Story ground Wall 4, !- Name
  Wall,                                   !- Surface Type
  ,                                       !- Construction Name
  Zone SuperMarket Restroom B  - Story ground, !- Zone Name
  SuperMarket Restroom B  - Story ground, !- Space Name
  Surface,                                !- Outside Boundary Condition
  SuperMarket Bakery B  - Story ground Wall 1, !- Outside Boundary Condition Object
  NoSun,                                  !- Sun Exposure
  NoWind,                                 !- Wind Exposure
  ,                                       !- View Factor to Ground
  ,                                       !- Number of Vertices
  1.18784044383074, -7.105427357601e-15, 6.096, !- X,Y,Z Vertex 1 {m}
  1.18784044383074, -7.105427357601e-15, 0, !- X,Y,Z Vertex 2 {m}
  1.18784044383074, 43.6489086146994, 0,  !- X,Y,Z Vertex 3 {m}
  1.18784044383074, 43.6489086146994, 6.096; !- X,Y,Z Vertex 4 {m}

Zone,
  Zone SuperMarket Restroom C  - Story ground, !- Name
  -0,                                     !- Direction of Relative North {deg}
  8.7266677940098,                        !- X Origin {m}
  21.8244543073497,                       !- Y Origin {m}
  0,                                      !- Z Origin {m}
  ,                                       !- Type
  1,                                      !- Multiplier
  ,                                       !- Ceiling Height {m}
  ,                                       !- Volume {m3}
  ,                                       !- Floor Area {m2}
  ,                                       !- Zone Inside Convection Algorithm
  ,                                       !- Zone Outside Convection Algorithm
  Yes;                                    !- Part of Total Floor Area

Space,
  SuperMarket Restroom C  - Story ground, !- Name
  Zone SuperMarket Restroom C  - Story ground, !- Zone Name
  ,                                       !- Ceiling Height {m}
  ,                                       !- Volume {m3}
  ,                                       !- Floor Area {m2}
  SuperMarket Restroom;                   !- Space Type

BuildingSurface:Detailed,
  SuperMarket Restroom C  - Story ground Floor 1, !- Name
  Floor,                                  !- Surface Type
  ,                                       !- Construction Name
  Zone SuperMarket Restroom C  - Story ground, !- Zone Name
  SuperMarket Restroom C  - Story ground, !- Space Name
  Ground,                                 !- Outside Boundary Condition
  ,                                       !- Outside Boundary Condition Object
  NoSun,                                  !- Sun Exposure
  NoWind,                                 !- Wind Exposure
  ,                                       !- View Factor to Ground
  ,                                       !- Number of Vertices
  -5.32907051820075e-15, 7.105427357601e-15, 0, !- X,Y,Z Vertex 1 {m}
  -5.32907051820075e-15, 4.57200000000001, 0, !- X,Y,Z Vertex 2 {m}
  1.18784044383074, 4.57200000000001, 0,  !- X,Y,Z Vertex 3 {m}
  1.18784044383074, 7.105427357601e-15, 0; !- X,Y,Z Vertex 4 {m}

BuildingSurface:Detailed,
  SuperMarket Restroom C  - Story ground RoofCeiling 1, !- Name
  Roof,                                   !- Surface Type
  ,                                       !- Construction Name
  Zone SuperMarket Restroom C  - Story ground, !- Zone Name
  SuperMarket Restroom C  - Story ground, !- Space Name
  Outdoors,                               !- Outside Boundary Condition
  ,                                       !- Outside Boundary Condition Object
  SunExposed,                             !- Sun Exposure
  WindExposed,                            !- Wind Exposure
  ,                                       !- View Factor to Ground
  ,                                       !- Number of Vertices
  1.18784044383074, 7.105427357601e-15, 6.096, !- X,Y,Z Vertex 1 {m}
  1.18784044383074, 4.57200000000001, 6.096, !- X,Y,Z Vertex 2 {m}
  -5.32907051820075e-15, 4.57200000000001, 6.096, !- X,Y,Z Vertex 3 {m}
  -5.32907051820075e-15, 7.105427357601e-15, 6.096; !- X,Y,Z Vertex 4 {m}

BuildingSurface:Detailed,
  SuperMarket Restroom C  - Story ground Wall 1, !- Name
  Wall,                                   !- Surface Type
  ,                                       !- Construction Name
  Zone SuperMarket Restroom C  - Story ground, !- Zone Name
  SuperMarket Restroom C  - Story ground, !- Space Name
  Surface,                                !- Outside Boundary Condition
  SuperMarket Elec/MechRoom C  - Story ground Wall 4, !- Outside Boundary Condition Object
  NoSun,                                  !- Sun Exposure
  NoWind,                                 !- Wind Exposure
  ,                                       !- View Factor to Ground
  ,                                       !- Number of Vertices
  0, 4.57200000000001, 6.096,             !- X,Y,Z Vertex 1 {m}
  0, 4.57200000000001, 0,                 !- X,Y,Z Vertex 2 {m}
  0, 7.105427357601e-15, 0,               !- X,Y,Z Vertex 3 {m}
  0, 7.105427357601e-15, 6.096;           !- X,Y,Z Vertex 4 {m}

BuildingSurface:Detailed,
  SuperMarket Restroom C  - Story ground Wall 2, !- Name
  Wall,                                   !- Surface Type
  ,                                       !- Construction Name
  Zone SuperMarket Restroom C  - Story ground, !- Zone Name
  SuperMarket Restroom C  - Story ground, !- Space Name
  Outdoors,                               !- Outside Boundary Condition
  ,                                       !- Outside Boundary Condition Object
  SunExposed,                             !- Sun Exposure
  WindExposed,                            !- Wind Exposure
  ,                                       !- View Factor to Ground
  ,                                       !- Number of Vertices
  -5.32907051820075e-15, 4.57200000000001, 6.096, !- X,Y,Z Vertex 1 {m}
  1.18784044383074, 4.57200000000001, 6.096, !- X,Y,Z Vertex 2 {m}
  1.18784044383074, 4.57200000000001, 0,  !- X,Y,Z Vertex 3 {m}
  -5.32907051820075e-15, 4.57200000000001, 0; !- X,Y,Z Vertex 4 {m}

FenestrationSurface:Detailed,
  SuperMarket Restroom C  - Story ground Wall 2 FixedWindow 1, !- Name
  Window,                                 !- Surface Type
  ,                                       !- Construction Name
  SuperMarket Restroom C  - Story ground Wall 2, !- Building Surface Name
  ,                                       !- Outside Boundary Condition Object
  ,                                       !- View Factor to Ground
  ,                                       !- Frame and Divider Name
  ,                                       !- Multiplier
  ,                                       !- Number of Vertices
  1.16244044383074, 4.57200000000001, 1.4625188710189, !- X,Y,Z Vertex 1 {m}
  1.16244044383074, 4.57200000000001, 0.762, !- X,Y,Z Vertex 2 {m}
  0.0253999999999945, 4.57200000000001, 0.762, !- X,Y,Z Vertex 3 {m}
  0.0253999999999945, 4.57200000000001, 1.4625188710189; !- X,Y,Z Vertex 4 {m}

BuildingSurface:Detailed,
  SuperMarket Restroom C  - Story ground Wall 3, !- Name
  Wall,                                   !- Surface Type
  ,                                       !- Construction Name
  Zone SuperMarket Restroom C  - Story ground, !- Zone Name
  SuperMarket Restroom C  - Story ground, !- Space Name
  Surface,                                !- Outside Boundary Condition
  SuperMarket Restroom B  - Story ground Wall 2, !- Outside Boundary Condition Object
  NoSun,                                  !- Sun Exposure
  NoWind,                                 !- Wind Exposure
  ,                                       !- View Factor to Ground
  ,                                       !- Number of Vertices
  -5.32907051820075e-15, 7.105427357601e-15, 6.096, !- X,Y,Z Vertex 1 {m}
  -5.32907051820075e-15, 7.105427357601e-15, 0, !- X,Y,Z Vertex 2 {m}
  1.18784044383074, 7.105427357601e-15, 0, !- X,Y,Z Vertex 3 {m}
  1.18784044383074, 7.105427357601e-15, 6.096; !- X,Y,Z Vertex 4 {m}

BuildingSurface:Detailed,
  SuperMarket Restroom C  - Story ground Wall 4, !- Name
  Wall,                                   !- Surface Type
  ,                                       !- Construction Name
  Zone SuperMarket Restroom C  - Story ground, !- Zone Name
  SuperMarket Restroom C  - Story ground, !- Space Name
  Surface,                                !- Outside Boundary Condition
  SuperMarket Bakery C  - Story ground Wall 1, !- Outside Boundary Condition Object
  NoSun,                                  !- Sun Exposure
  NoWind,                                 !- Wind Exposure
  ,                                       !- View Factor to Ground
  ,                                       !- Number of Vertices
  1.18784044383074, 7.105427357601e-15, 6.096, !- X,Y,Z Vertex 1 {m}
  1.18784044383074, 7.105427357601e-15, 0, !- X,Y,Z Vertex 2 {m}
  1.18784044383074, 4.57200000000001, 0,  !- X,Y,Z Vertex 3 {m}
  1.18784044383074, 4.57200000000001, 6.096; !- X,Y,Z Vertex 4 {m}

Zone,
  Zone SuperMarket Sales A  - Story ground, !- Name
  -0,                                     !- Direction of Relative North {deg}
  -35.0226814610245,                      !- X Origin {m}
  -26.3964543073497,                      !- Y Origin {m}
  0,                                      !- Z Origin {m}
  ,                                       !- Type
  1,                                      !- Multiplier
  ,                                       !- Ceiling Height {m}
  ,                                       !- Volume {m3}
  ,                                       !- Floor Area {m2}
  ,                                       !- Zone Inside Convection Algorithm
  ,                                       !- Zone Outside Convection Algorithm
  Yes;                                    !- Part of Total Floor Area

Space,
  SuperMarket Sales A  - Story ground,    !- Name
  Zone SuperMarket Sales A  - Story ground, !- Zone Name
  ,                                       !- Ceiling Height {m}
  ,                                       !- Volume {m3}
  ,                                       !- Floor Area {m2}
  SuperMarket Sales;                      !- Space Type

SpaceList,
  SuperMarket Sales,                      !- Name
  SuperMarket Sales A end_a - Story ground, !- Space Name 1
  SuperMarket Sales B end_a - Story ground, !- Space Name 2
  SuperMarket Sales C end_a - Story ground, !- Space Name 3
  SuperMarket Sales A  - Story ground,    !- Space Name 4
  SuperMarket Sales B  - Story ground,    !- Space Name 5
  SuperMarket Sales C  - Story ground;    !- Space Name 6

BuildingSurface:Detailed,
  SuperMarket Sales A  - Story ground Floor 1, !- Name
  Floor,                                  !- Surface Type
  ,                                       !- Construction Name
  Zone SuperMarket Sales A  - Story ground, !- Zone Name
  SuperMarket Sales A  - Story ground,    !- Space Name
  Ground,                                 !- Outside Boundary Condition
  ,                                       !- Outside Boundary Condition Object
  NoSun,                                  !- Sun Exposure
  NoWind,                                 !- Wind Exposure
  ,                                       !- View Factor to Ground
  ,                                       !- Number of Vertices
  3.5527136788005e-14, -7.105427357601e-15, 0, !- X,Y,Z Vertex 1 {m}
  3.5527136788005e-14, 4.57199999999999, 0, !- X,Y,Z Vertex 2 {m}
  38.942554925666, 4.57199999999999, 0,   !- X,Y,Z Vertex 3 {m}
  38.942554925666, -7.105427357601e-15, 0; !- X,Y,Z Vertex 4 {m}

BuildingSurface:Detailed,
  SuperMarket Sales A  - Story ground RoofCeiling 1, !- Name
  Roof,                                   !- Surface Type
  ,                                       !- Construction Name
  Zone SuperMarket Sales A  - Story ground, !- Zone Name
  SuperMarket Sales A  - Story ground,    !- Space Name
  Outdoors,                               !- Outside Boundary Condition
  ,                                       !- Outside Boundary Condition Object
  SunExposed,                             !- Sun Exposure
  WindExposed,                            !- Wind Exposure
  ,                                       !- View Factor to Ground
  ,                                       !- Number of Vertices
  38.942554925666, -7.105427357601e-15, 6.096, !- X,Y,Z Vertex 1 {m}
  38.942554925666, 4.57199999999999, 6.096, !- X,Y,Z Vertex 2 {m}
  3.5527136788005e-14, 4.57199999999999, 6.096, !- X,Y,Z Vertex 3 {m}
  3.5527136788005e-14, -7.105427357601e-15, 6.096; !- X,Y,Z Vertex 4 {m}

BuildingSurface:Detailed,
  SuperMarket Sales A  - Story ground Wall 1, !- Name
  Wall,                                   !- Surface Type
  ,                                       !- Construction Name
  Zone SuperMarket Sales A  - Story ground, !- Zone Name
  SuperMarket Sales A  - Story ground,    !- Space Name
  Surface,                                !- Outside Boundary Condition
  SuperMarket Sales A end_a - Story ground Wall 4, !- Outside Boundary Condition Object
  NoSun,                                  !- Sun Exposure
  NoWind,                                 !- Wind Exposure
  ,                                       !- View Factor to Ground
  ,                                       !- Number of Vertices
  3.5527136788005e-14, 4.57199999999999, 6.096, !- X,Y,Z Vertex 1 {m}
  3.5527136788005e-14, 4.57199999999999, 0, !- X,Y,Z Vertex 2 {m}
  3.5527136788005e-14, -7.105427357601e-15, 0, !- X,Y,Z Vertex 3 {m}
  3.5527136788005e-14, -7.105427357601e-15, 6.096; !- X,Y,Z Vertex 4 {m}

BuildingSurface:Detailed,
  SuperMarket Sales A  - Story ground Wall 2, !- Name
  Wall,                                   !- Surface Type
  ,                                       !- Construction Name
  Zone SuperMarket Sales A  - Story ground, !- Zone Name
  SuperMarket Sales A  - Story ground,    !- Space Name
  Surface,                                !- Outside Boundary Condition
  SuperMarket Sales B  - Story ground Wall 3, !- Outside Boundary Condition Object
  NoSun,                                  !- Sun Exposure
  NoWind,                                 !- Wind Exposure
  ,                                       !- View Factor to Ground
  ,                                       !- Number of Vertices
  38.942554925666, 4.57199999999999, 6.096, !- X,Y,Z Vertex 1 {m}
  38.942554925666, 4.57199999999999, 0,   !- X,Y,Z Vertex 2 {m}
  3.5527136788005e-14, 4.57199999999999, 0, !- X,Y,Z Vertex 3 {m}
  3.5527136788005e-14, 4.57199999999999, 6.096; !- X,Y,Z Vertex 4 {m}

BuildingSurface:Detailed,
  SuperMarket Sales A  - Story ground Wall 3, !- Name
  Wall,                                   !- Surface Type
  ,                                       !- Construction Name
  Zone SuperMarket Sales A  - Story ground, !- Zone Name
  SuperMarket Sales A  - Story ground,    !- Space Name
  Outdoors,                               !- Outside Boundary Condition
  ,                                       !- Outside Boundary Condition Object
  SunExposed,                             !- Sun Exposure
  WindExposed,                            !- Wind Exposure
  ,                                       !- View Factor to Ground
  ,                                       !- Number of Vertices
  38.942554925666, -7.105427357601e-15, 6.096, !- X,Y,Z Vertex 1 {m}
  3.5527136788005e-14, -7.105427357601e-15, 6.096, !- X,Y,Z Vertex 2 {m}
  3.5527136788005e-14, -7.105427357601e-15, 0, !- X,Y,Z Vertex 3 {m}
  38.942554925666, -7.105427357601e-15, 0; !- X,Y,Z Vertex 4 {m}

FenestrationSurface:Detailed,
  SuperMarket Sales A  - Story ground Wall 3 FixedWindow 1, !- Name
  Window,                                 !- Surface Type
  ,                                       !- Construction Name
  SuperMarket Sales A  - Story ground Wall 3, !- Building Surface Name
  ,                                       !- Outside Boundary Condition Object
  ,                                       !- View Factor to Ground
  ,                                       !- Frame and Divider Name
  ,                                       !- Multiplier
  ,                                       !- Number of Vertices
  0.0254000000000355, -7.105427357601e-15, 1.43343587839801, !- X,Y,Z Vertex 1 {m}
  0.0254000000000355, -7.105427357601e-15, 0.762, !- X,Y,Z Vertex 2 {m}
  38.917154925666, -7.105427357601e-15, 0.762, !- X,Y,Z Vertex 3 {m}
  38.917154925666, -7.105427357601e-15, 1.43343587839801; !- X,Y,Z Vertex 4 {m}

BuildingSurface:Detailed,
  SuperMarket Sales A  - Story ground Wall 4, !- Name
  Wall,                                   !- Surface Type
  ,                                       !- Construction Name
  Zone SuperMarket Sales A  - Story ground, !- Zone Name
  SuperMarket Sales A  - Story ground,    !- Space Name
  Surface,                                !- Outside Boundary Condition
  SuperMarket Office A  - Story ground Wall 1, !- Outside Boundary Condition Object
  NoSun,                                  !- Sun Exposure
  NoWind,                                 !- Wind Exposure
  ,                                       !- View Factor to Ground
  ,                                       !- Number of Vertices
  38.9425549256659, -7.105427357601e-15, 6.096, !- X,Y,Z Vertex 1 {m}
  38.9425549256659, -7.105427357601e-15, 0, !- X,Y,Z Vertex 2 {m}
  38.9425549256659, 4.57199999999999, 0,  !- X,Y,Z Vertex 3 {m}
  38.9425549256659, 4.57199999999999, 6.096; !- X,Y,Z Vertex 4 {m}

Zone,
  Zone SuperMarket Sales A end_a - Story ground, !- Name
  -0,                                     !- Direction of Relative North {deg}
  -39.5946814610245,                      !- X Origin {m}
  -26.3964543073497,                      !- Y Origin {m}
  0,                                      !- Z Origin {m}
  ,                                       !- Type
  1,                                      !- Multiplier
  ,                                       !- Ceiling Height {m}
  ,                                       !- Volume {m3}
  ,                                       !- Floor Area {m2}
  ,                                       !- Zone Inside Convection Algorithm
  ,                                       !- Zone Outside Convection Algorithm
  Yes;                                    !- Part of Total Floor Area

Space,
  SuperMarket Sales A end_a - Story ground, !- Name
  Zone SuperMarket Sales A end_a - Story ground, !- Zone Name
  ,                                       !- Ceiling Height {m}
  ,                                       !- Volume {m3}
  ,                                       !- Floor Area {m2}
  SuperMarket Sales;                      !- Space Type

BuildingSurface:Detailed,
  SuperMarket Sales A end_a - Story ground Floor 1, !- Name
  Floor,                                  !- Surface Type
  ,                                       !- Construction Name
  Zone SuperMarket Sales A end_a - Story ground, !- Zone Name
  SuperMarket Sales A end_a - Story ground, !- Space Name
  Ground,                                 !- Outside Boundary Condition
  ,                                       !- Outside Boundary Condition Object
  NoSun,                                  !- Sun Exposure
  NoWind,                                 !- Wind Exposure
  ,                                       !- View Factor to Ground
  ,                                       !- Number of Vertices
  3.5527136788005e-14, -7.105427357601e-15, 0, !- X,Y,Z Vertex 1 {m}
  3.5527136788005e-14, 4.57199999999999, 0, !- X,Y,Z Vertex 2 {m}
  4.57200000000004, 4.57199999999999, 0,  !- X,Y,Z Vertex 3 {m}
  4.57200000000004, -7.105427357601e-15, 0; !- X,Y,Z Vertex 4 {m}

BuildingSurface:Detailed,
  SuperMarket Sales A end_a - Story ground RoofCeiling 1, !- Name
  Roof,                                   !- Surface Type
  ,                                       !- Construction Name
  Zone SuperMarket Sales A end_a - Story ground, !- Zone Name
  SuperMarket Sales A end_a - Story ground, !- Space Name
  Outdoors,                               !- Outside Boundary Condition
  ,                                       !- Outside Boundary Condition Object
  SunExposed,                             !- Sun Exposure
  WindExposed,                            !- Wind Exposure
  ,                                       !- View Factor to Ground
  ,                                       !- Number of Vertices
  4.57200000000004, -7.105427357601e-15, 6.096, !- X,Y,Z Vertex 1 {m}
  4.57200000000004, 4.57199999999999, 6.096, !- X,Y,Z Vertex 2 {m}
  3.5527136788005e-14, 4.57199999999999, 6.096, !- X,Y,Z Vertex 3 {m}
  3.5527136788005e-14, -7.105427357601e-15, 6.096; !- X,Y,Z Vertex 4 {m}

BuildingSurface:Detailed,
  SuperMarket Sales A end_a - Story ground Wall 1, !- Name
  Wall,                                   !- Surface Type
  ,                                       !- Construction Name
  Zone SuperMarket Sales A end_a - Story ground, !- Zone Name
  SuperMarket Sales A end_a - Story ground, !- Space Name
  Outdoors,                               !- Outside Boundary Condition
  ,                                       !- Outside Boundary Condition Object
  SunExposed,                             !- Sun Exposure
  WindExposed,                            !- Wind Exposure
  ,                                       !- View Factor to Ground
  ,                                       !- Number of Vertices
  4.57200000000004, -7.105427357601e-15, 6.096, !- X,Y,Z Vertex 1 {m}
  3.5527136788005e-14, -7.105427357601e-15, 6.096, !- X,Y,Z Vertex 2 {m}
  3.5527136788005e-14, -7.105427357601e-15, 0, !- X,Y,Z Vertex 3 {m}
  4.57200000000004, -7.105427357601e-15, 0; !- X,Y,Z Vertex 4 {m}

FenestrationSurface:Detailed,
  SuperMarket Sales A end_a - Story ground Wall 1 FixedWindow 1, !- Name
  Window,                                 !- Surface Type
  ,                                       !- Construction Name
  SuperMarket Sales A end_a - Story ground Wall 1, !- Building Surface Name
  ,                                       !- Outside Boundary Condition Object
  ,                                       !- View Factor to Ground
  ,                                       !- Frame and Divider Name
  ,                                       !- Multiplier
  ,                                       !- Number of Vertices
  0.0254000000000355, -7.105427357601e-15, 1.44009438202247, !- X,Y,Z Vertex 1 {m}
  0.0254000000000355, -7.105427357601e-15, 0.762, !- X,Y,Z Vertex 2 {m}
  4.54660000000004, -7.105427357601e-15, 0.762, !- X,Y,Z Vertex 3 {m}
  4.54660000000004, -7.105427357601e-15, 1.44009438202247; !- X,Y,Z Vertex 4 {m}

BuildingSurface:Detailed,
  SuperMarket Sales A end_a - Story ground Wall 2, !- Name
  Wall,                                   !- Surface Type
  ,                                       !- Construction Name
  Zone SuperMarket Sales A end_a - Story ground, !- Zone Name
  SuperMarket Sales A end_a - Story ground, !- Space Name
  Surface,                                !- Outside Boundary Condition
  SuperMarket Sales B end_a - Story ground Wall 3, !- Outside Boundary Condition Object
  NoSun,                                  !- Sun Exposure
  NoWind,                                 !- Wind Exposure
  ,                                       !- View Factor to Ground
  ,                                       !- Number of Vertices
  4.57200000000004, 4.57199999999999, 6.096, !- X,Y,Z Vertex 1 {m}
  4.57200000000004, 4.57199999999999, 0,  !- X,Y,Z Vertex 2 {m}
  3.5527136788005e-14, 4.57199999999999, 0, !- X,Y,Z Vertex 3 {m}
  3.5527136788005e-14, 4.57199999999999, 6.096; !- X,Y,Z Vertex 4 {m}

BuildingSurface:Detailed,
  SuperMarket Sales A end_a - Story ground Wall 3, !- Name
  Wall,                                   !- Surface Type
  ,                                       !- Construction Name
  Zone SuperMarket Sales A end_a - Story ground, !- Zone Name
  SuperMarket Sales A end_a - Story ground, !- Space Name
  Outdoors,                               !- Outside Boundary Condition
  ,                                       !- Outside Boundary Condition Object
  SunExposed,                             !- Sun Exposure
  WindExposed,                            !- Wind Exposure
  ,                                       !- View Factor to Ground
  ,                                       !- Number of Vertices
  3.5527136788005e-14, -7.105427357601e-15, 6.096, !- X,Y,Z Vertex 1 {m}
  3.5527136788005e-14, 4.57199999999999, 6.096, !- X,Y,Z Vertex 2 {m}
  3.5527136788005e-14, 4.57199999999999, 0, !- X,Y,Z Vertex 3 {m}
  3.5527136788005e-14, -7.105427357601e-15, 0; !- X,Y,Z Vertex 4 {m}

FenestrationSurface:Detailed,
  SuperMarket Sales A end_a - Story ground Wall 3 FixedWindow 1, !- Name
  Window,                                 !- Surface Type
  ,                                       !- Construction Name
  SuperMarket Sales A end_a - Story ground Wall 3, !- Building Surface Name
  ,                                       !- Outside Boundary Condition Object
  ,                                       !- View Factor to Ground
  ,                                       !- Frame and Divider Name
  ,                                       !- Multiplier
  ,                                       !- Number of Vertices
  3.5527136788005e-14, 4.54659999999999, 1.44009438202247, !- X,Y,Z Vertex 1 {m}
  3.5527136788005e-14, 4.54659999999999, 0.762, !- X,Y,Z Vertex 2 {m}
  3.5527136788005e-14, 0.0253999999999923, 0.762, !- X,Y,Z Vertex 3 {m}
  3.5527136788005e-14, 0.0253999999999923, 1.44009438202247; !- X,Y,Z Vertex 4 {m}

BuildingSurface:Detailed,
  SuperMarket Sales A end_a - Story ground Wall 4, !- Name
  Wall,                                   !- Surface Type
  ,                                       !- Construction Name
  Zone SuperMarket Sales A end_a - Story ground, !- Zone Name
  SuperMarket Sales A end_a - Story ground, !- Space Name
  Surface,                                !- Outside Boundary Condition
  SuperMarket Sales A  - Story ground Wall 1, !- Outside Boundary Condition Object
  NoSun,                                  !- Sun Exposure
  NoWind,                                 !- Wind Exposure
  ,                                       !- View Factor to Ground
  ,                                       !- Number of Vertices
  4.57200000000004, -7.105427357601e-15, 6.096, !- X,Y,Z Vertex 1 {m}
  4.57200000000004, -7.105427357601e-15, 0, !- X,Y,Z Vertex 2 {m}
  4.57200000000004, 4.57199999999999, 0,  !- X,Y,Z Vertex 3 {m}
  4.57200000000004, 4.57199999999999, 6.096; !- X,Y,Z Vertex 4 {m}

Zone,
  Zone SuperMarket Sales B  - Story ground, !- Name
  -0,                                     !- Direction of Relative North {deg}
  -35.0226814610245,                      !- X Origin {m}
  -21.8244543073497,                      !- Y Origin {m}
  0,                                      !- Z Origin {m}
  ,                                       !- Type
  1,                                      !- Multiplier
  ,                                       !- Ceiling Height {m}
  ,                                       !- Volume {m3}
  ,                                       !- Floor Area {m2}
  ,                                       !- Zone Inside Convection Algorithm
  ,                                       !- Zone Outside Convection Algorithm
  Yes;                                    !- Part of Total Floor Area

Space,
  SuperMarket Sales B  - Story ground,    !- Name
  Zone SuperMarket Sales B  - Story ground, !- Zone Name
  ,                                       !- Ceiling Height {m}
  ,                                       !- Volume {m3}
  ,                                       !- Floor Area {m2}
  SuperMarket Sales;                      !- Space Type

BuildingSurface:Detailed,
  SuperMarket Sales B  - Story ground Floor 1, !- Name
  Floor,                                  !- Surface Type
  ,                                       !- Construction Name
  Zone SuperMarket Sales B  - Story ground, !- Zone Name
  SuperMarket Sales B  - Story ground,    !- Space Name
  Ground,                                 !- Outside Boundary Condition
  ,                                       !- Outside Boundary Condition Object
  NoSun,                                  !- Sun Exposure
  NoWind,                                 !- Wind Exposure
  ,                                       !- View Factor to Ground
  ,                                       !- Number of Vertices
  3.5527136788005e-14, -7.105427357601e-15, 0, !- X,Y,Z Vertex 1 {m}
  3.5527136788005e-14, 43.6489086146994, 0, !- X,Y,Z Vertex 2 {m}
  38.942554925666, 43.6489086146994, 0,   !- X,Y,Z Vertex 3 {m}
  38.942554925666, -7.105427357601e-15, 0; !- X,Y,Z Vertex 4 {m}

BuildingSurface:Detailed,
  SuperMarket Sales B  - Story ground RoofCeiling 1, !- Name
  Roof,                                   !- Surface Type
  ,                                       !- Construction Name
  Zone SuperMarket Sales B  - Story ground, !- Zone Name
  SuperMarket Sales B  - Story ground,    !- Space Name
  Outdoors,                               !- Outside Boundary Condition
  ,                                       !- Outside Boundary Condition Object
  SunExposed,                             !- Sun Exposure
  WindExposed,                            !- Wind Exposure
  ,                                       !- View Factor to Ground
  ,                                       !- Number of Vertices
  38.942554925666, -7.105427357601e-15, 6.096, !- X,Y,Z Vertex 1 {m}
  38.942554925666, 43.6489086146994, 6.096, !- X,Y,Z Vertex 2 {m}
  3.5527136788005e-14, 43.6489086146994, 6.096, !- X,Y,Z Vertex 3 {m}
  3.5527136788005e-14, -7.105427357601e-15, 6.096; !- X,Y,Z Vertex 4 {m}

BuildingSurface:Detailed,
  SuperMarket Sales B  - Story ground Wall 1, !- Name
  Wall,                                   !- Surface Type
  ,                                       !- Construction Name
  Zone SuperMarket Sales B  - Story ground, !- Zone Name
  SuperMarket Sales B  - Story ground,    !- Space Name
  Surface,                                !- Outside Boundary Condition
  SuperMarket Sales B end_a - Story ground Wall 4, !- Outside Boundary Condition Object
  NoSun,                                  !- Sun Exposure
  NoWind,                                 !- Wind Exposure
  ,                                       !- View Factor to Ground
  ,                                       !- Number of Vertices
  3.5527136788005e-14, 43.6489086146994, 6.096, !- X,Y,Z Vertex 1 {m}
  3.5527136788005e-14, 43.6489086146994, 0, !- X,Y,Z Vertex 2 {m}
  3.5527136788005e-14, -7.105427357601e-15, 0, !- X,Y,Z Vertex 3 {m}
  3.5527136788005e-14, -7.105427357601e-15, 6.096; !- X,Y,Z Vertex 4 {m}

BuildingSurface:Detailed,
  SuperMarket Sales B  - Story ground Wall 2, !- Name
  Wall,                                   !- Surface Type
  ,                                       !- Construction Name
  Zone SuperMarket Sales B  - Story ground, !- Zone Name
  SuperMarket Sales B  - Story ground,    !- Space Name
  Surface,                                !- Outside Boundary Condition
  SuperMarket Sales C  - Story ground Wall 3, !- Outside Boundary Condition Object
  NoSun,                                  !- Sun Exposure
  NoWind,                                 !- Wind Exposure
  ,                                       !- View Factor to Ground
  ,                                       !- Number of Vertices
  38.942554925666, 43.6489086146994, 6.096, !- X,Y,Z Vertex 1 {m}
  38.942554925666, 43.6489086146994, 0,   !- X,Y,Z Vertex 2 {m}
  3.5527136788005e-14, 43.6489086146994, 0, !- X,Y,Z Vertex 3 {m}
  3.5527136788005e-14, 43.6489086146994, 6.096; !- X,Y,Z Vertex 4 {m}

BuildingSurface:Detailed,
  SuperMarket Sales B  - Story ground Wall 3, !- Name
  Wall,                                   !- Surface Type
  ,                                       !- Construction Name
  Zone SuperMarket Sales B  - Story ground, !- Zone Name
  SuperMarket Sales B  - Story ground,    !- Space Name
  Surface,                                !- Outside Boundary Condition
  SuperMarket Sales A  - Story ground Wall 2, !- Outside Boundary Condition Object
  NoSun,                                  !- Sun Exposure
  NoWind,                                 !- Wind Exposure
  ,                                       !- View Factor to Ground
  ,                                       !- Number of Vertices
  3.5527136788005e-14, -1.06581410364015e-14, 6.096, !- X,Y,Z Vertex 1 {m}
  3.5527136788005e-14, -1.06581410364015e-14, 0, !- X,Y,Z Vertex 2 {m}
  38.942554925666, -1.06581410364015e-14, 0, !- X,Y,Z Vertex 3 {m}
  38.942554925666, -1.06581410364015e-14, 6.096; !- X,Y,Z Vertex 4 {m}

BuildingSurface:Detailed,
  SuperMarket Sales B  - Story ground Wall 4, !- Name
  Wall,                                   !- Surface Type
  ,                                       !- Construction Name
  Zone SuperMarket Sales B  - Story ground, !- Zone Name
  SuperMarket Sales B  - Story ground,    !- Space Name
  Surface,                                !- Outside Boundary Condition
  SuperMarket Office B  - Story ground Wall 1, !- Outside Boundary Condition Object
  NoSun,                                  !- Sun Exposure
  NoWind,                                 !- Wind Exposure
  ,                                       !- View Factor to Ground
  ,                                       !- Number of Vertices
  38.9425549256659, -7.105427357601e-15, 6.096, !- X,Y,Z Vertex 1 {m}
  38.9425549256659, -7.105427357601e-15, 0, !- X,Y,Z Vertex 2 {m}
  38.9425549256659, 43.6489086146994, 0,  !- X,Y,Z Vertex 3 {m}
  38.9425549256659, 43.6489086146994, 6.096; !- X,Y,Z Vertex 4 {m}

Zone,
  Zone SuperMarket Sales B end_a - Story ground, !- Name
  -0,                                     !- Direction of Relative North {deg}
  -39.5946814610245,                      !- X Origin {m}
  -21.8244543073497,                      !- Y Origin {m}
  0,                                      !- Z Origin {m}
  ,                                       !- Type
  1,                                      !- Multiplier
  ,                                       !- Ceiling Height {m}
  ,                                       !- Volume {m3}
  ,                                       !- Floor Area {m2}
  ,                                       !- Zone Inside Convection Algorithm
  ,                                       !- Zone Outside Convection Algorithm
  Yes;                                    !- Part of Total Floor Area

Space,
  SuperMarket Sales B end_a - Story ground, !- Name
  Zone SuperMarket Sales B end_a - Story ground, !- Zone Name
  ,                                       !- Ceiling Height {m}
  ,                                       !- Volume {m3}
  ,                                       !- Floor Area {m2}
  SuperMarket Sales;                      !- Space Type

BuildingSurface:Detailed,
  SuperMarket Sales B end_a - Story ground Floor 1, !- Name
  Floor,                                  !- Surface Type
  ,                                       !- Construction Name
  Zone SuperMarket Sales B end_a - Story ground, !- Zone Name
  SuperMarket Sales B end_a - Story ground, !- Space Name
  Ground,                                 !- Outside Boundary Condition
  ,                                       !- Outside Boundary Condition Object
  NoSun,                                  !- Sun Exposure
  NoWind,                                 !- Wind Exposure
  ,                                       !- View Factor to Ground
  ,                                       !- Number of Vertices
  3.5527136788005e-14, -7.105427357601e-15, 0, !- X,Y,Z Vertex 1 {m}
  3.5527136788005e-14, 43.6489086146994, 0, !- X,Y,Z Vertex 2 {m}
  4.57200000000004, 43.6489086146994, 0,  !- X,Y,Z Vertex 3 {m}
  4.57200000000004, -7.105427357601e-15, 0; !- X,Y,Z Vertex 4 {m}

BuildingSurface:Detailed,
  SuperMarket Sales B end_a - Story ground RoofCeiling 1, !- Name
  Roof,                                   !- Surface Type
  ,                                       !- Construction Name
  Zone SuperMarket Sales B end_a - Story ground, !- Zone Name
  SuperMarket Sales B end_a - Story ground, !- Space Name
  Outdoors,                               !- Outside Boundary Condition
  ,                                       !- Outside Boundary Condition Object
  SunExposed,                             !- Sun Exposure
  WindExposed,                            !- Wind Exposure
  ,                                       !- View Factor to Ground
  ,                                       !- Number of Vertices
  4.57200000000004, -7.105427357601e-15, 6.096, !- X,Y,Z Vertex 1 {m}
  4.57200000000004, 43.6489086146994, 6.096, !- X,Y,Z Vertex 2 {m}
  3.5527136788005e-14, 43.6489086146994, 6.096, !- X,Y,Z Vertex 3 {m}
  3.5527136788005e-14, -7.105427357601e-15, 6.096; !- X,Y,Z Vertex 4 {m}

BuildingSurface:Detailed,
  SuperMarket Sales B end_a - Story ground Wall 1, !- Name
  Wall,                                   !- Surface Type
  ,                                       !- Construction Name
  Zone SuperMarket Sales B end_a - Story ground, !- Zone Name
  SuperMarket Sales B end_a - Story ground, !- Space Name
  Outdoors,                               !- Outside Boundary Condition
  ,                                       !- Outside Boundary Condition Object
  SunExposed,                             !- Sun Exposure
  WindExposed,                            !- Wind Exposure
  ,                                       !- View Factor to Ground
  ,                                       !- Number of Vertices
  3.5527136788005e-14, -7.105427357601e-15, 6.096, !- X,Y,Z Vertex 1 {m}
  3.5527136788005e-14, 43.6489086146994, 6.096, !- X,Y,Z Vertex 2 {m}
  3.5527136788005e-14, 43.6489086146994, 0, !- X,Y,Z Vertex 3 {m}
  3.5527136788005e-14, -7.105427357601e-15, 0; !- X,Y,Z Vertex 4 {m}

FenestrationSurface:Detailed,
  SuperMarket Sales B end_a - Story ground Wall 1 FixedWindow 1, !- Name
  Window,                                 !- Surface Type
  ,                                       !- Construction Name
  SuperMarket Sales B end_a - Story ground Wall 1, !- Building Surface Name
  ,                                       !- Outside Boundary Condition Object
  ,                                       !- View Factor to Ground
  ,                                       !- Frame and Divider Name
  ,                                       !- Multiplier
  ,                                       !- Number of Vertices
  3.5527136788005e-14, 43.6235086146994, 1.43334132857324, !- X,Y,Z Vertex 1 {m}
  3.5527136788005e-14, 43.6235086146994, 0.762, !- X,Y,Z Vertex 2 {m}
  3.5527136788005e-14, 0.0253999999999976, 0.762, !- X,Y,Z Vertex 3 {m}
  3.5527136788005e-14, 0.0253999999999976, 1.43334132857324; !- X,Y,Z Vertex 4 {m}

BuildingSurface:Detailed,
  SuperMarket Sales B end_a - Story ground Wall 2, !- Name
  Wall,                                   !- Surface Type
  ,                                       !- Construction Name
  Zone SuperMarket Sales B end_a - Story ground, !- Zone Name
  SuperMarket Sales B end_a - Story ground, !- Space Name
  Surface,                                !- Outside Boundary Condition
  SuperMarket Sales C end_a - Story ground Wall 3, !- Outside Boundary Condition Object
  NoSun,                                  !- Sun Exposure
  NoWind,                                 !- Wind Exposure
  ,                                       !- View Factor to Ground
  ,                                       !- Number of Vertices
  4.57200000000004, 43.6489086146994, 6.096, !- X,Y,Z Vertex 1 {m}
  4.57200000000004, 43.6489086146994, 0,  !- X,Y,Z Vertex 2 {m}
  3.5527136788005e-14, 43.6489086146994, 0, !- X,Y,Z Vertex 3 {m}
  3.5527136788005e-14, 43.6489086146994, 6.096; !- X,Y,Z Vertex 4 {m}

BuildingSurface:Detailed,
  SuperMarket Sales B end_a - Story ground Wall 3, !- Name
  Wall,                                   !- Surface Type
  ,                                       !- Construction Name
  Zone SuperMarket Sales B end_a - Story ground, !- Zone Name
  SuperMarket Sales B end_a - Story ground, !- Space Name
  Surface,                                !- Outside Boundary Condition
  SuperMarket Sales A end_a - Story ground Wall 2, !- Outside Boundary Condition Object
  NoSun,                                  !- Sun Exposure
  NoWind,                                 !- Wind Exposure
  ,                                       !- View Factor to Ground
  ,                                       !- Number of Vertices
  3.5527136788005e-14, -1.06581410364015e-14, 6.096, !- X,Y,Z Vertex 1 {m}
  3.5527136788005e-14, -1.06581410364015e-14, 0, !- X,Y,Z Vertex 2 {m}
  4.57200000000004, -1.06581410364015e-14, 0, !- X,Y,Z Vertex 3 {m}
  4.57200000000004, -1.06581410364015e-14, 6.096; !- X,Y,Z Vertex 4 {m}

BuildingSurface:Detailed,
  SuperMarket Sales B end_a - Story ground Wall 4, !- Name
  Wall,                                   !- Surface Type
  ,                                       !- Construction Name
  Zone SuperMarket Sales B end_a - Story ground, !- Zone Name
  SuperMarket Sales B end_a - Story ground, !- Space Name
  Surface,                                !- Outside Boundary Condition
  SuperMarket Sales B  - Story ground Wall 1, !- Outside Boundary Condition Object
  NoSun,                                  !- Sun Exposure
  NoWind,                                 !- Wind Exposure
  ,                                       !- View Factor to Ground
  ,                                       !- Number of Vertices
  4.57200000000004, -7.105427357601e-15, 6.096, !- X,Y,Z Vertex 1 {m}
  4.57200000000004, -7.105427357601e-15, 0, !- X,Y,Z Vertex 2 {m}
  4.57200000000004, 43.6489086146994, 0,  !- X,Y,Z Vertex 3 {m}
  4.57200000000004, 43.6489086146994, 6.096; !- X,Y,Z Vertex 4 {m}

Zone,
  Zone SuperMarket Sales C  - Story ground, !- Name
  -0,                                     !- Direction of Relative North {deg}
  -35.0226814610245,                      !- X Origin {m}
  21.8244543073497,                       !- Y Origin {m}
  0,                                      !- Z Origin {m}
  ,                                       !- Type
  1,                                      !- Multiplier
  ,                                       !- Ceiling Height {m}
  ,                                       !- Volume {m3}
  ,                                       !- Floor Area {m2}
  ,                                       !- Zone Inside Convection Algorithm
  ,                                       !- Zone Outside Convection Algorithm
  Yes;                                    !- Part of Total Floor Area

Space,
  SuperMarket Sales C  - Story ground,    !- Name
  Zone SuperMarket Sales C  - Story ground, !- Zone Name
  ,                                       !- Ceiling Height {m}
  ,                                       !- Volume {m3}
  ,                                       !- Floor Area {m2}
  SuperMarket Sales;                      !- Space Type

BuildingSurface:Detailed,
  SuperMarket Sales C  - Story ground Floor 1, !- Name
  Floor,                                  !- Surface Type
  ,                                       !- Construction Name
  Zone SuperMarket Sales C  - Story ground, !- Zone Name
  SuperMarket Sales C  - Story ground,    !- Space Name
  Ground,                                 !- Outside Boundary Condition
  ,                                       !- Outside Boundary Condition Object
  NoSun,                                  !- Sun Exposure
  NoWind,                                 !- Wind Exposure
  ,                                       !- View Factor to Ground
  ,                                       !- Number of Vertices
  3.5527136788005e-14, 7.105427357601e-15, 0, !- X,Y,Z Vertex 1 {m}
  3.5527136788005e-14, 4.57200000000001, 0, !- X,Y,Z Vertex 2 {m}
  38.942554925666, 4.57200000000001, 0,   !- X,Y,Z Vertex 3 {m}
  38.942554925666, 7.105427357601e-15, 0; !- X,Y,Z Vertex 4 {m}

BuildingSurface:Detailed,
  SuperMarket Sales C  - Story ground RoofCeiling 1, !- Name
  Roof,                                   !- Surface Type
  ,                                       !- Construction Name
  Zone SuperMarket Sales C  - Story ground, !- Zone Name
  SuperMarket Sales C  - Story ground,    !- Space Name
  Outdoors,                               !- Outside Boundary Condition
  ,                                       !- Outside Boundary Condition Object
  SunExposed,                             !- Sun Exposure
  WindExposed,                            !- Wind Exposure
  ,                                       !- View Factor to Ground
  ,                                       !- Number of Vertices
  38.942554925666, 7.105427357601e-15, 6.096, !- X,Y,Z Vertex 1 {m}
  38.942554925666, 4.57200000000001, 6.096, !- X,Y,Z Vertex 2 {m}
  3.5527136788005e-14, 4.57200000000001, 6.096, !- X,Y,Z Vertex 3 {m}
  3.5527136788005e-14, 7.105427357601e-15, 6.096; !- X,Y,Z Vertex 4 {m}

BuildingSurface:Detailed,
  SuperMarket Sales C  - Story ground Wall 1, !- Name
  Wall,                                   !- Surface Type
  ,                                       !- Construction Name
  Zone SuperMarket Sales C  - Story ground, !- Zone Name
  SuperMarket Sales C  - Story ground,    !- Space Name
  Surface,                                !- Outside Boundary Condition
  SuperMarket Sales C end_a - Story ground Wall 4, !- Outside Boundary Condition Object
  NoSun,                                  !- Sun Exposure
  NoWind,                                 !- Wind Exposure
  ,                                       !- View Factor to Ground
  ,                                       !- Number of Vertices
  3.5527136788005e-14, 4.57200000000001, 6.096, !- X,Y,Z Vertex 1 {m}
  3.5527136788005e-14, 4.57200000000001, 0, !- X,Y,Z Vertex 2 {m}
  3.5527136788005e-14, 7.105427357601e-15, 0, !- X,Y,Z Vertex 3 {m}
  3.5527136788005e-14, 7.105427357601e-15, 6.096; !- X,Y,Z Vertex 4 {m}

BuildingSurface:Detailed,
  SuperMarket Sales C  - Story ground Wall 2, !- Name
  Wall,                                   !- Surface Type
  ,                                       !- Construction Name
  Zone SuperMarket Sales C  - Story ground, !- Zone Name
  SuperMarket Sales C  - Story ground,    !- Space Name
  Outdoors,                               !- Outside Boundary Condition
  ,                                       !- Outside Boundary Condition Object
  SunExposed,                             !- Sun Exposure
  WindExposed,                            !- Wind Exposure
  ,                                       !- View Factor to Ground
  ,                                       !- Number of Vertices
  3.5527136788005e-14, 4.57200000000001, 6.096, !- X,Y,Z Vertex 1 {m}
  38.942554925666, 4.57200000000001, 6.096, !- X,Y,Z Vertex 2 {m}
  38.942554925666, 4.57200000000001, 0,   !- X,Y,Z Vertex 3 {m}
  3.5527136788005e-14, 4.57200000000001, 0; !- X,Y,Z Vertex 4 {m}

FenestrationSurface:Detailed,
  SuperMarket Sales C  - Story ground Wall 2 FixedWindow 1, !- Name
  Window,                                 !- Surface Type
  ,                                       !- Construction Name
  SuperMarket Sales C  - Story ground Wall 2, !- Building Surface Name
  ,                                       !- Outside Boundary Condition Object
  ,                                       !- View Factor to Ground
  ,                                       !- Frame and Divider Name
  ,                                       !- Multiplier
  ,                                       !- Number of Vertices
  38.917154925666, 4.57200000000001, 1.43343587839801, !- X,Y,Z Vertex 1 {m}
  38.917154925666, 4.57200000000001, 0.762, !- X,Y,Z Vertex 2 {m}
  0.0254000000000403, 4.57200000000001, 0.762, !- X,Y,Z Vertex 3 {m}
  0.0254000000000403, 4.57200000000001, 1.43343587839801; !- X,Y,Z Vertex 4 {m}

BuildingSurface:Detailed,
  SuperMarket Sales C  - Story ground Wall 3, !- Name
  Wall,                                   !- Surface Type
  ,                                       !- Construction Name
  Zone SuperMarket Sales C  - Story ground, !- Zone Name
  SuperMarket Sales C  - Story ground,    !- Space Name
  Surface,                                !- Outside Boundary Condition
  SuperMarket Sales B  - Story ground Wall 2, !- Outside Boundary Condition Object
  NoSun,                                  !- Sun Exposure
  NoWind,                                 !- Wind Exposure
  ,                                       !- View Factor to Ground
  ,                                       !- Number of Vertices
  3.5527136788005e-14, 7.105427357601e-15, 6.096, !- X,Y,Z Vertex 1 {m}
  3.5527136788005e-14, 7.105427357601e-15, 0, !- X,Y,Z Vertex 2 {m}
  38.942554925666, 7.105427357601e-15, 0, !- X,Y,Z Vertex 3 {m}
  38.942554925666, 7.105427357601e-15, 6.096; !- X,Y,Z Vertex 4 {m}

BuildingSurface:Detailed,
  SuperMarket Sales C  - Story ground Wall 4, !- Name
  Wall,                                   !- Surface Type
  ,                                       !- Construction Name
  Zone SuperMarket Sales C  - Story ground, !- Zone Name
  SuperMarket Sales C  - Story ground,    !- Space Name
  Surface,                                !- Outside Boundary Condition
  SuperMarket Office C  - Story ground Wall 1, !- Outside Boundary Condition Object
  NoSun,                                  !- Sun Exposure
  NoWind,                                 !- Wind Exposure
  ,                                       !- View Factor to Ground
  ,                                       !- Number of Vertices
  38.9425549256659, 7.105427357601e-15, 6.096, !- X,Y,Z Vertex 1 {m}
  38.9425549256659, 7.105427357601e-15, 0, !- X,Y,Z Vertex 2 {m}
  38.9425549256659, 4.57200000000001, 0,  !- X,Y,Z Vertex 3 {m}
  38.9425549256659, 4.57200000000001, 6.096; !- X,Y,Z Vertex 4 {m}

Zone,
  Zone SuperMarket Sales C end_a - Story ground, !- Name
  -0,                                     !- Direction of Relative North {deg}
  -39.5946814610245,                      !- X Origin {m}
  21.8244543073497,                       !- Y Origin {m}
  0,                                      !- Z Origin {m}
  ,                                       !- Type
  1,                                      !- Multiplier
  ,                                       !- Ceiling Height {m}
  ,                                       !- Volume {m3}
  ,                                       !- Floor Area {m2}
  ,                                       !- Zone Inside Convection Algorithm
  ,                                       !- Zone Outside Convection Algorithm
  Yes;                                    !- Part of Total Floor Area

Space,
  SuperMarket Sales C end_a - Story ground, !- Name
  Zone SuperMarket Sales C end_a - Story ground, !- Zone Name
  ,                                       !- Ceiling Height {m}
  ,                                       !- Volume {m3}
  ,                                       !- Floor Area {m2}
  SuperMarket Sales;                      !- Space Type

BuildingSurface:Detailed,
  SuperMarket Sales C end_a - Story ground Floor 1, !- Name
  Floor,                                  !- Surface Type
  ,                                       !- Construction Name
  Zone SuperMarket Sales C end_a - Story ground, !- Zone Name
  SuperMarket Sales C end_a - Story ground, !- Space Name
  Ground,                                 !- Outside Boundary Condition
  ,                                       !- Outside Boundary Condition Object
  NoSun,                                  !- Sun Exposure
  NoWind,                                 !- Wind Exposure
  ,                                       !- View Factor to Ground
  ,                                       !- Number of Vertices
  3.5527136788005e-14, 7.105427357601e-15, 0, !- X,Y,Z Vertex 1 {m}
  3.5527136788005e-14, 4.57200000000001, 0, !- X,Y,Z Vertex 2 {m}
  4.57200000000004, 4.57200000000001, 0,  !- X,Y,Z Vertex 3 {m}
  4.57200000000004, 7.105427357601e-15, 0; !- X,Y,Z Vertex 4 {m}

BuildingSurface:Detailed,
  SuperMarket Sales C end_a - Story ground RoofCeiling 1, !- Name
  Roof,                                   !- Surface Type
  ,                                       !- Construction Name
  Zone SuperMarket Sales C end_a - Story ground, !- Zone Name
  SuperMarket Sales C end_a - Story ground, !- Space Name
  Outdoors,                               !- Outside Boundary Condition
  ,                                       !- Outside Boundary Condition Object
  SunExposed,                             !- Sun Exposure
  WindExposed,                            !- Wind Exposure
  ,                                       !- View Factor to Ground
  ,                                       !- Number of Vertices
  4.57200000000004, 7.105427357601e-15, 6.096, !- X,Y,Z Vertex 1 {m}
  4.57200000000004, 4.57200000000001, 6.096, !- X,Y,Z Vertex 2 {m}
  3.5527136788005e-14, 4.57200000000001, 6.096, !- X,Y,Z Vertex 3 {m}
  3.5527136788005e-14, 7.105427357601e-15, 6.096; !- X,Y,Z Vertex 4 {m}

BuildingSurface:Detailed,
  SuperMarket Sales C end_a - Story ground Wall 1, !- Name
  Wall,                                   !- Surface Type
  ,                                       !- Construction Name
  Zone SuperMarket Sales C end_a - Story ground, !- Zone Name
  SuperMarket Sales C end_a - Story ground, !- Space Name
  Outdoors,                               !- Outside Boundary Condition
  ,                                       !- Outside Boundary Condition Object
  SunExposed,                             !- Sun Exposure
  WindExposed,                            !- Wind Exposure
  ,                                       !- View Factor to Ground
  ,                                       !- Number of Vertices
  3.5527136788005e-14, 7.105427357601e-15, 6.096, !- X,Y,Z Vertex 1 {m}
  3.5527136788005e-14, 4.57200000000001, 6.096, !- X,Y,Z Vertex 2 {m}
  3.5527136788005e-14, 4.57200000000001, 0, !- X,Y,Z Vertex 3 {m}
  3.5527136788005e-14, 7.105427357601e-15, 0; !- X,Y,Z Vertex 4 {m}

FenestrationSurface:Detailed,
  SuperMarket Sales C end_a - Story ground Wall 1 FixedWindow 1, !- Name
  Window,                                 !- Surface Type
  ,                                       !- Construction Name
  SuperMarket Sales C end_a - Story ground Wall 1, !- Building Surface Name
  ,                                       !- Outside Boundary Condition Object
  ,                                       !- View Factor to Ground
  ,                                       !- Frame and Divider Name
  ,                                       !- Multiplier
  ,                                       !- Number of Vertices
  3.5527136788005e-14, 4.54660000000001, 1.44009438202247, !- X,Y,Z Vertex 1 {m}
  3.5527136788005e-14, 4.54660000000001, 0.762, !- X,Y,Z Vertex 2 {m}
  3.5527136788005e-14, 0.0254000000000065, 0.762, !- X,Y,Z Vertex 3 {m}
  3.5527136788005e-14, 0.0254000000000065, 1.44009438202247; !- X,Y,Z Vertex 4 {m}

BuildingSurface:Detailed,
  SuperMarket Sales C end_a - Story ground Wall 2, !- Name
  Wall,                                   !- Surface Type
  ,                                       !- Construction Name
  Zone SuperMarket Sales C end_a - Story ground, !- Zone Name
  SuperMarket Sales C end_a - Story ground, !- Space Name
  Outdoors,                               !- Outside Boundary Condition
  ,                                       !- Outside Boundary Condition Object
  SunExposed,                             !- Sun Exposure
  WindExposed,                            !- Wind Exposure
  ,                                       !- View Factor to Ground
  ,                                       !- Number of Vertices
  3.5527136788005e-14, 4.57200000000001, 6.096, !- X,Y,Z Vertex 1 {m}
  4.57200000000004, 4.57200000000001, 6.096, !- X,Y,Z Vertex 2 {m}
  4.57200000000004, 4.57200000000001, 0,  !- X,Y,Z Vertex 3 {m}
  3.5527136788005e-14, 4.57200000000001, 0; !- X,Y,Z Vertex 4 {m}

FenestrationSurface:Detailed,
  SuperMarket Sales C end_a - Story ground Wall 2 FixedWindow 1, !- Name
  Window,                                 !- Surface Type
  ,                                       !- Construction Name
  SuperMarket Sales C end_a - Story ground Wall 2, !- Building Surface Name
  ,                                       !- Outside Boundary Condition Object
  ,                                       !- View Factor to Ground
  ,                                       !- Frame and Divider Name
  ,                                       !- Multiplier
  ,                                       !- Number of Vertices
  4.54660000000004, 4.57200000000001, 1.44009438202247, !- X,Y,Z Vertex 1 {m}
  4.54660000000004, 4.57200000000001, 0.762, !- X,Y,Z Vertex 2 {m}
  0.025400000000035, 4.57200000000001, 0.762, !- X,Y,Z Vertex 3 {m}
  0.025400000000035, 4.57200000000001, 1.44009438202247; !- X,Y,Z Vertex 4 {m}

BuildingSurface:Detailed,
  SuperMarket Sales C end_a - Story ground Wall 3, !- Name
  Wall,                                   !- Surface Type
  ,                                       !- Construction Name
  Zone SuperMarket Sales C end_a - Story ground, !- Zone Name
  SuperMarket Sales C end_a - Story ground, !- Space Name
  Surface,                                !- Outside Boundary Condition
  SuperMarket Sales B end_a - Story ground Wall 2, !- Outside Boundary Condition Object
  NoSun,                                  !- Sun Exposure
  NoWind,                                 !- Wind Exposure
  ,                                       !- View Factor to Ground
  ,                                       !- Number of Vertices
  3.5527136788005e-14, 7.105427357601e-15, 6.096, !- X,Y,Z Vertex 1 {m}
  3.5527136788005e-14, 7.105427357601e-15, 0, !- X,Y,Z Vertex 2 {m}
  4.57200000000004, 7.105427357601e-15, 0, !- X,Y,Z Vertex 3 {m}
  4.57200000000004, 7.105427357601e-15, 6.096; !- X,Y,Z Vertex 4 {m}

BuildingSurface:Detailed,
  SuperMarket Sales C end_a - Story ground Wall 4, !- Name
  Wall,                                   !- Surface Type
  ,                                       !- Construction Name
  Zone SuperMarket Sales C end_a - Story ground, !- Zone Name
  SuperMarket Sales C end_a - Story ground, !- Space Name
  Surface,                                !- Outside Boundary Condition
  SuperMarket Sales C  - Story ground Wall 1, !- Outside Boundary Condition Object
  NoSun,                                  !- Sun Exposure
  NoWind,                                 !- Wind Exposure
  ,                                       !- View Factor to Ground
  ,                                       !- Number of Vertices
  4.57200000000004, 7.105427357601e-15, 6.096, !- X,Y,Z Vertex 1 {m}
  4.57200000000004, 7.105427357601e-15, 0, !- X,Y,Z Vertex 2 {m}
  4.57200000000004, 4.57200000000001, 0,  !- X,Y,Z Vertex 3 {m}
  4.57200000000004, 4.57200000000001, 6.096; !- X,Y,Z Vertex 4 {m}

Zone,
  Zone SuperMarket Vestibule A  - Story ground, !- Name
  -0,                                     !- Direction of Relative North {deg}
  4.45044219621916,                       !- X Origin {m}
  -26.3964543073497,                      !- Y Origin {m}
  0,                                      !- Z Origin {m}
  ,                                       !- Type
  1,                                      !- Multiplier
  ,                                       !- Ceiling Height {m}
  ,                                       !- Volume {m3}
  ,                                       !- Floor Area {m2}
  ,                                       !- Zone Inside Convection Algorithm
  ,                                       !- Zone Outside Convection Algorithm
  Yes;                                    !- Part of Total Floor Area

Space,
  SuperMarket Vestibule A  - Story ground, !- Name
  Zone SuperMarket Vestibule A  - Story ground, !- Zone Name
  ,                                       !- Ceiling Height {m}
  ,                                       !- Volume {m3}
  ,                                       !- Floor Area {m2}
  SuperMarket Vestibule;                  !- Space Type

SpaceList,
  SuperMarket Vestibule,                  !- Name
  SuperMarket Vestibule C  - Story ground, !- Space Name 1
  SuperMarket Vestibule A  - Story ground, !- Space Name 2
  SuperMarket Vestibule B  - Story ground; !- Space Name 3

BuildingSurface:Detailed,
  SuperMarket Vestibule A  - Story ground Floor 1, !- Name
  Floor,                                  !- Surface Type
  ,                                       !- Construction Name
  Zone SuperMarket Vestibule A  - Story ground, !- Zone Name
  SuperMarket Vestibule A  - Story ground, !- Space Name
  Ground,                                 !- Outside Boundary Condition
  ,                                       !- Outside Boundary Condition Object
  NoSun,                                  !- Sun Exposure
  NoWind,                                 !- Wind Exposure
  ,                                       !- View Factor to Ground
  ,                                       !- Number of Vertices
  4.44089209850063e-15, -7.105427357601e-15, 0, !- X,Y,Z Vertex 1 {m}
  4.44089209850063e-15, 4.57199999999999, 0, !- X,Y,Z Vertex 2 {m}
  0.530568731577724, 4.57199999999999, 0, !- X,Y,Z Vertex 3 {m}
  0.530568731577724, -7.105427357601e-15, 0; !- X,Y,Z Vertex 4 {m}

BuildingSurface:Detailed,
  SuperMarket Vestibule A  - Story ground RoofCeiling 1, !- Name
  Roof,                                   !- Surface Type
  ,                                       !- Construction Name
  Zone SuperMarket Vestibule A  - Story ground, !- Zone Name
  SuperMarket Vestibule A  - Story ground, !- Space Name
  Outdoors,                               !- Outside Boundary Condition
  ,                                       !- Outside Boundary Condition Object
  SunExposed,                             !- Sun Exposure
  WindExposed,                            !- Wind Exposure
  ,                                       !- View Factor to Ground
  ,                                       !- Number of Vertices
  0.530568731577724, -7.105427357601e-15, 6.096, !- X,Y,Z Vertex 1 {m}
  0.530568731577724, 4.57199999999999, 6.096, !- X,Y,Z Vertex 2 {m}
  4.44089209850063e-15, 4.57199999999999, 6.096, !- X,Y,Z Vertex 3 {m}
  4.44089209850063e-15, -7.105427357601e-15, 6.096; !- X,Y,Z Vertex 4 {m}

BuildingSurface:Detailed,
  SuperMarket Vestibule A  - Story ground Wall 1, !- Name
  Wall,                                   !- Surface Type
  ,                                       !- Construction Name
  Zone SuperMarket Vestibule A  - Story ground, !- Zone Name
  SuperMarket Vestibule A  - Story ground, !- Space Name
  Surface,                                !- Outside Boundary Condition
  SuperMarket Office A  - Story ground Wall 4, !- Outside Boundary Condition Object
  NoSun,                                  !- Sun Exposure
  NoWind,                                 !- Wind Exposure
  ,                                       !- View Factor to Ground
  ,                                       !- Number of Vertices
  4.44089209850063e-15, 4.57199999999999, 6.096, !- X,Y,Z Vertex 1 {m}
  4.44089209850063e-15, 4.57199999999999, 0, !- X,Y,Z Vertex 2 {m}
  4.44089209850063e-15, -7.105427357601e-15, 0, !- X,Y,Z Vertex 3 {m}
  4.44089209850063e-15, -7.105427357601e-15, 6.096; !- X,Y,Z Vertex 4 {m}

BuildingSurface:Detailed,
  SuperMarket Vestibule A  - Story ground Wall 2, !- Name
  Wall,                                   !- Surface Type
  ,                                       !- Construction Name
  Zone SuperMarket Vestibule A  - Story ground, !- Zone Name
  SuperMarket Vestibule A  - Story ground, !- Space Name
  Surface,                                !- Outside Boundary Condition
  SuperMarket Vestibule B  - Story ground Wall 3, !- Outside Boundary Condition Object
  NoSun,                                  !- Sun Exposure
  NoWind,                                 !- Wind Exposure
  ,                                       !- View Factor to Ground
  ,                                       !- Number of Vertices
  0.530568731577724, 4.57199999999999, 6.096, !- X,Y,Z Vertex 1 {m}
  0.530568731577724, 4.57199999999999, 0, !- X,Y,Z Vertex 2 {m}
  4.44089209850063e-15, 4.57199999999999, 0, !- X,Y,Z Vertex 3 {m}
  4.44089209850063e-15, 4.57199999999999, 6.096; !- X,Y,Z Vertex 4 {m}

BuildingSurface:Detailed,
  SuperMarket Vestibule A  - Story ground Wall 3, !- Name
  Wall,                                   !- Surface Type
  ,                                       !- Construction Name
  Zone SuperMarket Vestibule A  - Story ground, !- Zone Name
  SuperMarket Vestibule A  - Story ground, !- Space Name
  Outdoors,                               !- Outside Boundary Condition
  ,                                       !- Outside Boundary Condition Object
  SunExposed,                             !- Sun Exposure
  WindExposed,                            !- Wind Exposure
  ,                                       !- View Factor to Ground
  ,                                       !- Number of Vertices
  0.530568731577724, -7.105427357601e-15, 6.096, !- X,Y,Z Vertex 1 {m}
  4.44089209850063e-15, -7.105427357601e-15, 6.096, !- X,Y,Z Vertex 2 {m}
  4.44089209850063e-15, -7.105427357601e-15, 0, !- X,Y,Z Vertex 3 {m}
  0.530568731577724, -7.105427357601e-15, 0; !- X,Y,Z Vertex 4 {m}

FenestrationSurface:Detailed,
  SuperMarket Vestibule A  - Story ground Wall 3 FixedWindow 1, !- Name
  Window,                                 !- Surface Type
  ,                                       !- Construction Name
  SuperMarket Vestibule A  - Story ground Wall 3, !- Building Surface Name
  ,                                       !- Outside Boundary Condition Object
  ,                                       !- View Factor to Ground
  ,                                       !- Frame and Divider Name
  ,                                       !- Multiplier
  ,                                       !- Number of Vertices
  0.0254000000000044, -7.105427357601e-15, 1.50356180932588, !- X,Y,Z Vertex 1 {m}
  0.0254000000000044, -7.105427357601e-15, 0.762, !- X,Y,Z Vertex 2 {m}
  0.505168731577724, -7.105427357601e-15, 0.762, !- X,Y,Z Vertex 3 {m}
  0.505168731577724, -7.105427357601e-15, 1.50356180932588; !- X,Y,Z Vertex 4 {m}

BuildingSurface:Detailed,
  SuperMarket Vestibule A  - Story ground Wall 4, !- Name
  Wall,                                   !- Surface Type
  ,                                       !- Construction Name
  Zone SuperMarket Vestibule A  - Story ground, !- Zone Name
  SuperMarket Vestibule A  - Story ground, !- Space Name
  Surface,                                !- Outside Boundary Condition
  SuperMarket Dining A  - Story ground Wall 1, !- Outside Boundary Condition Object
  NoSun,                                  !- Sun Exposure
  NoWind,                                 !- Wind Exposure
  ,                                       !- View Factor to Ground
  ,                                       !- Number of Vertices
  0.530568731577724, -7.105427357601e-15, 6.096, !- X,Y,Z Vertex 1 {m}
  0.530568731577724, -7.105427357601e-15, 0, !- X,Y,Z Vertex 2 {m}
  0.530568731577724, 4.57199999999999, 0, !- X,Y,Z Vertex 3 {m}
  0.530568731577724, 4.57199999999999, 6.096; !- X,Y,Z Vertex 4 {m}

Zone,
  Zone SuperMarket Vestibule B  - Story ground, !- Name
  -0,                                     !- Direction of Relative North {deg}
  4.45044219621916,                       !- X Origin {m}
  -21.8244543073497,                      !- Y Origin {m}
  0,                                      !- Z Origin {m}
  ,                                       !- Type
  1,                                      !- Multiplier
  ,                                       !- Ceiling Height {m}
  ,                                       !- Volume {m3}
  ,                                       !- Floor Area {m2}
  ,                                       !- Zone Inside Convection Algorithm
  ,                                       !- Zone Outside Convection Algorithm
  Yes;                                    !- Part of Total Floor Area

Space,
  SuperMarket Vestibule B  - Story ground, !- Name
  Zone SuperMarket Vestibule B  - Story ground, !- Zone Name
  ,                                       !- Ceiling Height {m}
  ,                                       !- Volume {m3}
  ,                                       !- Floor Area {m2}
  SuperMarket Vestibule;                  !- Space Type

BuildingSurface:Detailed,
  SuperMarket Vestibule B  - Story ground Floor 1, !- Name
  Floor,                                  !- Surface Type
  ,                                       !- Construction Name
  Zone SuperMarket Vestibule B  - Story ground, !- Zone Name
  SuperMarket Vestibule B  - Story ground, !- Space Name
  Ground,                                 !- Outside Boundary Condition
  ,                                       !- Outside Boundary Condition Object
  NoSun,                                  !- Sun Exposure
  NoWind,                                 !- Wind Exposure
  ,                                       !- View Factor to Ground
  ,                                       !- Number of Vertices
  4.44089209850063e-15, -7.105427357601e-15, 0, !- X,Y,Z Vertex 1 {m}
  4.44089209850063e-15, 43.6489086146994, 0, !- X,Y,Z Vertex 2 {m}
  0.530568731577724, 43.6489086146994, 0, !- X,Y,Z Vertex 3 {m}
  0.530568731577724, -7.105427357601e-15, 0; !- X,Y,Z Vertex 4 {m}

BuildingSurface:Detailed,
  SuperMarket Vestibule B  - Story ground RoofCeiling 1, !- Name
  Roof,                                   !- Surface Type
  ,                                       !- Construction Name
  Zone SuperMarket Vestibule B  - Story ground, !- Zone Name
  SuperMarket Vestibule B  - Story ground, !- Space Name
  Outdoors,                               !- Outside Boundary Condition
  ,                                       !- Outside Boundary Condition Object
  SunExposed,                             !- Sun Exposure
  WindExposed,                            !- Wind Exposure
  ,                                       !- View Factor to Ground
  ,                                       !- Number of Vertices
  0.530568731577724, -7.105427357601e-15, 6.096, !- X,Y,Z Vertex 1 {m}
  0.530568731577724, 43.6489086146994, 6.096, !- X,Y,Z Vertex 2 {m}
  4.44089209850063e-15, 43.6489086146994, 6.096, !- X,Y,Z Vertex 3 {m}
  4.44089209850063e-15, -7.105427357601e-15, 6.096; !- X,Y,Z Vertex 4 {m}

BuildingSurface:Detailed,
  SuperMarket Vestibule B  - Story ground Wall 1, !- Name
  Wall,                                   !- Surface Type
  ,                                       !- Construction Name
  Zone SuperMarket Vestibule B  - Story ground, !- Zone Name
  SuperMarket Vestibule B  - Story ground, !- Space Name
  Surface,                                !- Outside Boundary Condition
  SuperMarket Office B  - Story ground Wall 4, !- Outside Boundary Condition Object
  NoSun,                                  !- Sun Exposure
  NoWind,                                 !- Wind Exposure
  ,                                       !- View Factor to Ground
  ,                                       !- Number of Vertices
  4.44089209850063e-15, 43.6489086146994, 6.096, !- X,Y,Z Vertex 1 {m}
  4.44089209850063e-15, 43.6489086146994, 0, !- X,Y,Z Vertex 2 {m}
  4.44089209850063e-15, -7.105427357601e-15, 0, !- X,Y,Z Vertex 3 {m}
  4.44089209850063e-15, -7.105427357601e-15, 6.096; !- X,Y,Z Vertex 4 {m}

BuildingSurface:Detailed,
  SuperMarket Vestibule B  - Story ground Wall 2, !- Name
  Wall,                                   !- Surface Type
  ,                                       !- Construction Name
  Zone SuperMarket Vestibule B  - Story ground, !- Zone Name
  SuperMarket Vestibule B  - Story ground, !- Space Name
  Surface,                                !- Outside Boundary Condition
  SuperMarket Vestibule C  - Story ground Wall 3, !- Outside Boundary Condition Object
  NoSun,                                  !- Sun Exposure
  NoWind,                                 !- Wind Exposure
  ,                                       !- View Factor to Ground
  ,                                       !- Number of Vertices
  0.530568731577724, 43.6489086146994, 6.096, !- X,Y,Z Vertex 1 {m}
  0.530568731577724, 43.6489086146994, 0, !- X,Y,Z Vertex 2 {m}
  4.44089209850063e-15, 43.6489086146994, 0, !- X,Y,Z Vertex 3 {m}
  4.44089209850063e-15, 43.6489086146994, 6.096; !- X,Y,Z Vertex 4 {m}

BuildingSurface:Detailed,
  SuperMarket Vestibule B  - Story ground Wall 3, !- Name
  Wall,                                   !- Surface Type
  ,                                       !- Construction Name
  Zone SuperMarket Vestibule B  - Story ground, !- Zone Name
  SuperMarket Vestibule B  - Story ground, !- Space Name
  Surface,                                !- Outside Boundary Condition
  SuperMarket Vestibule A  - Story ground Wall 2, !- Outside Boundary Condition Object
  NoSun,                                  !- Sun Exposure
  NoWind,                                 !- Wind Exposure
  ,                                       !- View Factor to Ground
  ,                                       !- Number of Vertices
  4.44089209850063e-15, -1.06581410364015e-14, 6.096, !- X,Y,Z Vertex 1 {m}
  4.44089209850063e-15, -1.06581410364015e-14, 0, !- X,Y,Z Vertex 2 {m}
  0.530568731577724, -1.06581410364015e-14, 0, !- X,Y,Z Vertex 3 {m}
  0.530568731577724, -1.06581410364015e-14, 6.096; !- X,Y,Z Vertex 4 {m}

BuildingSurface:Detailed,
  SuperMarket Vestibule B  - Story ground Wall 4, !- Name
  Wall,                                   !- Surface Type
  ,                                       !- Construction Name
  Zone SuperMarket Vestibule B  - Story ground, !- Zone Name
  SuperMarket Vestibule B  - Story ground, !- Space Name
  Surface,                                !- Outside Boundary Condition
  SuperMarket Dining B  - Story ground Wall 1, !- Outside Boundary Condition Object
  NoSun,                                  !- Sun Exposure
  NoWind,                                 !- Wind Exposure
  ,                                       !- View Factor to Ground
  ,                                       !- Number of Vertices
  0.530568731577724, -7.105427357601e-15, 6.096, !- X,Y,Z Vertex 1 {m}
  0.530568731577724, -7.105427357601e-15, 0, !- X,Y,Z Vertex 2 {m}
  0.530568731577724, 43.6489086146994, 0, !- X,Y,Z Vertex 3 {m}
  0.530568731577724, 43.6489086146994, 6.096; !- X,Y,Z Vertex 4 {m}

Zone,
  Zone SuperMarket Vestibule C  - Story ground, !- Name
  -0,                                     !- Direction of Relative North {deg}
  4.45044219621916,                       !- X Origin {m}
  21.8244543073497,                       !- Y Origin {m}
  0,                                      !- Z Origin {m}
  ,                                       !- Type
  1,                                      !- Multiplier
  ,                                       !- Ceiling Height {m}
  ,                                       !- Volume {m3}
  ,                                       !- Floor Area {m2}
  ,                                       !- Zone Inside Convection Algorithm
  ,                                       !- Zone Outside Convection Algorithm
  Yes;                                    !- Part of Total Floor Area

Space,
  SuperMarket Vestibule C  - Story ground, !- Name
  Zone SuperMarket Vestibule C  - Story ground, !- Zone Name
  ,                                       !- Ceiling Height {m}
  ,                                       !- Volume {m3}
  ,                                       !- Floor Area {m2}
  SuperMarket Vestibule;                  !- Space Type

BuildingSurface:Detailed,
  SuperMarket Vestibule C  - Story ground Floor 1, !- Name
  Floor,                                  !- Surface Type
  ,                                       !- Construction Name
  Zone SuperMarket Vestibule C  - Story ground, !- Zone Name
  SuperMarket Vestibule C  - Story ground, !- Space Name
  Ground,                                 !- Outside Boundary Condition
  ,                                       !- Outside Boundary Condition Object
  NoSun,                                  !- Sun Exposure
  NoWind,                                 !- Wind Exposure
  ,                                       !- View Factor to Ground
  ,                                       !- Number of Vertices
  4.44089209850063e-15, 7.105427357601e-15, 0, !- X,Y,Z Vertex 1 {m}
  4.44089209850063e-15, 4.57200000000001, 0, !- X,Y,Z Vertex 2 {m}
  0.530568731577724, 4.57200000000001, 0, !- X,Y,Z Vertex 3 {m}
  0.530568731577724, 7.105427357601e-15, 0; !- X,Y,Z Vertex 4 {m}

BuildingSurface:Detailed,
  SuperMarket Vestibule C  - Story ground RoofCeiling 1, !- Name
  Roof,                                   !- Surface Type
  ,                                       !- Construction Name
  Zone SuperMarket Vestibule C  - Story ground, !- Zone Name
  SuperMarket Vestibule C  - Story ground, !- Space Name
  Outdoors,                               !- Outside Boundary Condition
  ,                                       !- Outside Boundary Condition Object
  SunExposed,                             !- Sun Exposure
  WindExposed,                            !- Wind Exposure
  ,                                       !- View Factor to Ground
  ,                                       !- Number of Vertices
  0.530568731577724, 7.105427357601e-15, 6.096, !- X,Y,Z Vertex 1 {m}
  0.530568731577724, 4.57200000000001, 6.096, !- X,Y,Z Vertex 2 {m}
  4.44089209850063e-15, 4.57200000000001, 6.096, !- X,Y,Z Vertex 3 {m}
  4.44089209850063e-15, 7.105427357601e-15, 6.096; !- X,Y,Z Vertex 4 {m}

BuildingSurface:Detailed,
  SuperMarket Vestibule C  - Story ground Wall 1, !- Name
  Wall,                                   !- Surface Type
  ,                                       !- Construction Name
  Zone SuperMarket Vestibule C  - Story ground, !- Zone Name
  SuperMarket Vestibule C  - Story ground, !- Space Name
  Surface,                                !- Outside Boundary Condition
  SuperMarket Office C  - Story ground Wall 4, !- Outside Boundary Condition Object
  NoSun,                                  !- Sun Exposure
  NoWind,                                 !- Wind Exposure
  ,                                       !- View Factor to Ground
  ,                                       !- Number of Vertices
  4.44089209850063e-15, 4.57200000000001, 6.096, !- X,Y,Z Vertex 1 {m}
  4.44089209850063e-15, 4.57200000000001, 0, !- X,Y,Z Vertex 2 {m}
  4.44089209850063e-15, 7.105427357601e-15, 0, !- X,Y,Z Vertex 3 {m}
  4.44089209850063e-15, 7.105427357601e-15, 6.096; !- X,Y,Z Vertex 4 {m}

BuildingSurface:Detailed,
  SuperMarket Vestibule C  - Story ground Wall 2, !- Name
  Wall,                                   !- Surface Type
  ,                                       !- Construction Name
  Zone SuperMarket Vestibule C  - Story ground, !- Zone Name
  SuperMarket Vestibule C  - Story ground, !- Space Name
  Outdoors,                               !- Outside Boundary Condition
  ,                                       !- Outside Boundary Condition Object
  SunExposed,                             !- Sun Exposure
  WindExposed,                            !- Wind Exposure
  ,                                       !- View Factor to Ground
  ,                                       !- Number of Vertices
  4.44089209850063e-15, 4.57200000000001, 6.096, !- X,Y,Z Vertex 1 {m}
  0.530568731577724, 4.57200000000001, 6.096, !- X,Y,Z Vertex 2 {m}
  0.530568731577724, 4.57200000000001, 0, !- X,Y,Z Vertex 3 {m}
  4.44089209850063e-15, 4.57200000000001, 0; !- X,Y,Z Vertex 4 {m}

FenestrationSurface:Detailed,
  SuperMarket Vestibule C  - Story ground Wall 2 FixedWindow 1, !- Name
  Window,                                 !- Surface Type
  ,                                       !- Construction Name
  SuperMarket Vestibule C  - Story ground Wall 2, !- Building Surface Name
  ,                                       !- Outside Boundary Condition Object
  ,                                       !- View Factor to Ground
  ,                                       !- Frame and Divider Name
  ,                                       !- Multiplier
  ,                                       !- Number of Vertices
  0.505168731577724, 4.57200000000001, 1.50356180932588, !- X,Y,Z Vertex 1 {m}
  0.505168731577724, 4.57200000000001, 0.762, !- X,Y,Z Vertex 2 {m}
  0.0254000000000044, 4.57200000000001, 0.762, !- X,Y,Z Vertex 3 {m}
  0.0254000000000044, 4.57200000000001, 1.50356180932588; !- X,Y,Z Vertex 4 {m}

BuildingSurface:Detailed,
  SuperMarket Vestibule C  - Story ground Wall 3, !- Name
  Wall,                                   !- Surface Type
  ,                                       !- Construction Name
  Zone SuperMarket Vestibule C  - Story ground, !- Zone Name
  SuperMarket Vestibule C  - Story ground, !- Space Name
  Surface,                                !- Outside Boundary Condition
  SuperMarket Vestibule B  - Story ground Wall 2, !- Outside Boundary Condition Object
  NoSun,                                  !- Sun Exposure
  NoWind,                                 !- Wind Exposure
  ,                                       !- View Factor to Ground
  ,                                       !- Number of Vertices
  4.44089209850063e-15, 7.105427357601e-15, 6.096, !- X,Y,Z Vertex 1 {m}
  4.44089209850063e-15, 7.105427357601e-15, 0, !- X,Y,Z Vertex 2 {m}
  0.530568731577724, 7.105427357601e-15, 0, !- X,Y,Z Vertex 3 {m}
  0.530568731577724, 7.105427357601e-15, 6.096; !- X,Y,Z Vertex 4 {m}

BuildingSurface:Detailed,
  SuperMarket Vestibule C  - Story ground Wall 4, !- Name
  Wall,                                   !- Surface Type
  ,                                       !- Construction Name
  Zone SuperMarket Vestibule C  - Story ground, !- Zone Name
  SuperMarket Vestibule C  - Story ground, !- Space Name
  Surface,                                !- Outside Boundary Condition
  SuperMarket Dining C  - Story ground Wall 1, !- Outside Boundary Condition Object
  NoSun,                                  !- Sun Exposure
  NoWind,                                 !- Wind Exposure
  ,                                       !- View Factor to Ground
  ,                                       !- Number of Vertices
  0.530568731577724, 7.105427357601e-15, 6.096, !- X,Y,Z Vertex 1 {m}
  0.530568731577724, 7.105427357601e-15, 0, !- X,Y,Z Vertex 2 {m}
  0.530568731577724, 4.57200000000001, 0, !- X,Y,Z Vertex 3 {m}
  0.530568731577724, 4.57200000000001, 6.096; !- X,Y,Z Vertex 4 {m}

SimulationControl,
  No,                                     !- Do Zone Sizing Calculation
  No,                                     !- Do System Sizing Calculation
  No,                                     !- Do Plant Sizing Calculation
  Yes,                                    !- Run Simulation for Sizing Periods
  Yes,                                    !- Run Simulation for Weather File Run Periods
  ,                                       !- Do HVAC Sizing Simulation for Sizing Periods
  ;                                       !- Maximum Number of HVAC Sizing Simulation Passes

Sizing:Parameters,
  1.25,                                   !- Heating Sizing Factor
  1.15;                                   !- Cooling Sizing Factor

RunPeriod,
  Run Period 1,                           !- Name
  1,                                      !- Begin Month
  1,                                      !- Begin Day of Month
  2009,                                   !- Begin Year
  12,                                     !- End Month
  31,                                     !- End Day of Month
  2009,                                   !- End Year
  Thursday,                               !- Day of Week for Start Day
  No,                                     !- Use Weather File Holidays and Special Days
  No,                                     !- Use Weather File Daylight Saving Period
  No,                                     !- Apply Weekend Holiday Rule
  Yes,                                    !- Use Weather File Rain Indicators
  Yes;                                    !- Use Weather File Snow Indicators

Output:Table:SummaryReports,
  AllSummary;                             !- Report Name 1

GlobalGeometryRules,
  UpperLeftCorner,                        !- Starting Vertex Position
  Counterclockwise,                       !- Vertex Entry Direction
  Relative,                               !- Coordinate System
  Relative,                               !- Daylighting Reference Point Coordinate System
  Relative;                               !- Rectangular Surface Coordinate System

Schedule:Constant,
  Always On Discrete,                     !- Name
  OnOff,                                  !- Schedule Type Limits Name
  1;                                      !- Hourly Value

Schedule:Constant,
  Always Off Discrete,                    !- Name
  OnOff 1,                                !- Schedule Type Limits Name
  0;                                      !- Hourly Value

Schedule:Constant,
  Always On Continuous,                   !- Name
  Fractional,                             !- Schedule Type Limits Name
  1;                                      !- Hourly Value

ScheduleTypeLimits,
  Fractional,                             !- Name
  0,                                      !- Lower Limit Value {BasedOnField A3}
  1,                                      !- Upper Limit Value {BasedOnField A3}
  Continuous;                             !- Numeric Type

ScheduleTypeLimits,
  OnOff,                                  !- Name
  0,                                      !- Lower Limit Value {BasedOnField A3}
  1,                                      !- Upper Limit Value {BasedOnField A3}
  Discrete,                               !- Numeric Type
  availability;                           !- Unit Type

ScheduleTypeLimits,
  OnOff 1,                                !- Name
  0,                                      !- Lower Limit Value {BasedOnField A3}
  1,                                      !- Upper Limit Value {BasedOnField A3}
  Discrete,                               !- Numeric Type
  availability;                           !- Unit Type

OutdoorAir:Node,
  Model Outdoor Air Node;                 !- Name

Site:Location,
  Site 1,                                 !- Name
  0,                                      !- Latitude {deg}
  0,                                      !- Longitude {deg}
  0,                                      !- Time Zone {hr}
  0;                                      !- Elevation {m}

OutputControl:Table:Style,
  HTML;                                   !- Column Separator

Output:VariableDictionary,
  IDF,                                    !- Key Field
  Unsorted;                               !- Sort Option

Output:SQLite,
  SimpleAndTabular;                       !- Option Type

LifeCycleCost:NonrecurringCost,
  Default Cost,                           !- Name
  Construction,                           !- Category
  0,                                      !- Cost
  ServicePeriod;                          !- Start of Costs

Output:Table:Monthly,
  Building Energy Performance - Electricity, !- Name
  2,                                      !- Digits After Decimal
  InteriorLights:Electricity,             !- Variable or Meter Name 1
  SumOrAverage,                           !- Aggregation Type for Variable or Meter 1
  ExteriorLights:Electricity,             !- Variable or Meter Name 2
  SumOrAverage,                           !- Aggregation Type for Variable or Meter 2
  InteriorEquipment:Electricity,          !- Variable or Meter Name 3
  SumOrAverage,                           !- Aggregation Type for Variable or Meter 3
  ExteriorEquipment:Electricity,          !- Variable or Meter Name 4
  SumOrAverage,                           !- Aggregation Type for Variable or Meter 4
  Fans:Electricity,                       !- Variable or Meter Name 5
  SumOrAverage,                           !- Aggregation Type for Variable or Meter 5
  Pumps:Electricity,                      !- Variable or Meter Name 6
  SumOrAverage,                           !- Aggregation Type for Variable or Meter 6
  Heating:Electricity,                    !- Variable or Meter Name 7
  SumOrAverage,                           !- Aggregation Type for Variable or Meter 7
  Cooling:Electricity,                    !- Variable or Meter Name 8
  SumOrAverage,                           !- Aggregation Type for Variable or Meter 8
  HeatRejection:Electricity,              !- Variable or Meter Name 9
  SumOrAverage,                           !- Aggregation Type for Variable or Meter 9
  Humidifier:Electricity,                 !- Variable or Meter Name 10
  SumOrAverage,                           !- Aggregation Type for Variable or Meter 10
  HeatRecovery:Electricity,               !- Variable or Meter Name 11
  SumOrAverage,                           !- Aggregation Type for Variable or Meter 11
  WaterSystems:Electricity,               !- Variable or Meter Name 12
  SumOrAverage,                           !- Aggregation Type for Variable or Meter 12
  Cogeneration:Electricity,               !- Variable or Meter Name 13
  SumOrAverage,                           !- Aggregation Type for Variable or Meter 13
  Refrigeration:Electricity,              !- Variable or Meter Name 14
  SumOrAverage;                           !- Aggregation Type for Variable or Meter 14

Output:Table:Monthly,
  Building Energy Performance - Natural Gas, !- Name
  2,                                      !- Digits After Decimal
  InteriorEquipment:NaturalGas,           !- Variable or Meter Name 1
  SumOrAverage,                           !- Aggregation Type for Variable or Meter 1
  ExteriorEquipment:NaturalGas,           !- Variable or Meter Name 2
  SumOrAverage,                           !- Aggregation Type for Variable or Meter 2
  Heating:NaturalGas,                     !- Variable or Meter Name 3
  SumOrAverage,                           !- Aggregation Type for Variable or Meter 3
  Cooling:NaturalGas,                     !- Variable or Meter Name 4
  SumOrAverage,                           !- Aggregation Type for Variable or Meter 4
  WaterSystems:NaturalGas,                !- Variable or Meter Name 5
  SumOrAverage,                           !- Aggregation Type for Variable or Meter 5
  Cogeneration:NaturalGas,                !- Variable or Meter Name 6
  SumOrAverage;                           !- Aggregation Type for Variable or Meter 6

Output:Table:Monthly,
  Building Energy Performance - District Heating Water, !- Name
  2,                                      !- Digits After Decimal
  InteriorLights:DistrictHeatingWater,    !- Variable or Meter Name 1
  SumOrAverage,                           !- Aggregation Type for Variable or Meter 1
  ExteriorLights:DistrictHeatingWater,    !- Variable or Meter Name 2
  SumOrAverage,                           !- Aggregation Type for Variable or Meter 2
  InteriorEquipment:DistrictHeatingWater, !- Variable or Meter Name 3
  SumOrAverage,                           !- Aggregation Type for Variable or Meter 3
  ExteriorEquipment:DistrictHeatingWater, !- Variable or Meter Name 4
  SumOrAverage,                           !- Aggregation Type for Variable or Meter 4
  Fans:DistrictHeatingWater,              !- Variable or Meter Name 5
  SumOrAverage,                           !- Aggregation Type for Variable or Meter 5
  Pumps:DistrictHeatingWater,             !- Variable or Meter Name 6
  SumOrAverage,                           !- Aggregation Type for Variable or Meter 6
  Heating:DistrictHeatingWater,           !- Variable or Meter Name 7
  SumOrAverage,                           !- Aggregation Type for Variable or Meter 7
  Cooling:DistrictHeatingWater,           !- Variable or Meter Name 8
  SumOrAverage,                           !- Aggregation Type for Variable or Meter 8
  HeatRejection:DistrictHeatingWater,     !- Variable or Meter Name 9
  SumOrAverage,                           !- Aggregation Type for Variable or Meter 9
  Humidifier:DistrictHeatingWater,        !- Variable or Meter Name 10
  SumOrAverage,                           !- Aggregation Type for Variable or Meter 10
  HeatRecovery:DistrictHeatingWater,      !- Variable or Meter Name 11
  SumOrAverage,                           !- Aggregation Type for Variable or Meter 11
  WaterSystems:DistrictHeatingWater,      !- Variable or Meter Name 12
  SumOrAverage,                           !- Aggregation Type for Variable or Meter 12
  Cogeneration:DistrictHeatingWater,      !- Variable or Meter Name 13
  SumOrAverage;                           !- Aggregation Type for Variable or Meter 13

Output:Table:Monthly,
  Building Energy Performance - District Cooling, !- Name
  2,                                      !- Digits After Decimal
  InteriorLights:DistrictCooling,         !- Variable or Meter Name 1
  SumOrAverage,                           !- Aggregation Type for Variable or Meter 1
  ExteriorLights:DistrictCooling,         !- Variable or Meter Name 2
  SumOrAverage,                           !- Aggregation Type for Variable or Meter 2
  InteriorEquipment:DistrictCooling,      !- Variable or Meter Name 3
  SumOrAverage,                           !- Aggregation Type for Variable or Meter 3
  ExteriorEquipment:DistrictCooling,      !- Variable or Meter Name 4
  SumOrAverage,                           !- Aggregation Type for Variable or Meter 4
  Fans:DistrictCooling,                   !- Variable or Meter Name 5
  SumOrAverage,                           !- Aggregation Type for Variable or Meter 5
  Pumps:DistrictCooling,                  !- Variable or Meter Name 6
  SumOrAverage,                           !- Aggregation Type for Variable or Meter 6
  Heating:DistrictCooling,                !- Variable or Meter Name 7
  SumOrAverage,                           !- Aggregation Type for Variable or Meter 7
  Cooling:DistrictCooling,                !- Variable or Meter Name 8
  SumOrAverage,                           !- Aggregation Type for Variable or Meter 8
  HeatRejection:DistrictCooling,          !- Variable or Meter Name 9
  SumOrAverage,                           !- Aggregation Type for Variable or Meter 9
  Humidifier:DistrictCooling,             !- Variable or Meter Name 10
  SumOrAverage,                           !- Aggregation Type for Variable or Meter 10
  HeatRecovery:DistrictCooling,           !- Variable or Meter Name 11
  SumOrAverage,                           !- Aggregation Type for Variable or Meter 11
  WaterSystems:DistrictCooling,           !- Variable or Meter Name 12
  SumOrAverage,                           !- Aggregation Type for Variable or Meter 12
  Cogeneration:DistrictCooling,           !- Variable or Meter Name 13
  SumOrAverage;                           !- Aggregation Type for Variable or Meter 13

Output:Table:Monthly,
  Building Energy Performance - Electricity Peak Demand, !- Name
  2,                                      !- Digits After Decimal
  Electricity:Facility,                   !- Variable or Meter Name 1
  Maximum,                                !- Aggregation Type for Variable or Meter 1
  InteriorLights:Electricity,             !- Variable or Meter Name 2
  ValueWhenMaximumOrMinimum,              !- Aggregation Type for Variable or Meter 2
  ExteriorLights:Electricity,             !- Variable or Meter Name 3
  ValueWhenMaximumOrMinimum,              !- Aggregation Type for Variable or Meter 3
  InteriorEquipment:Electricity,          !- Variable or Meter Name 4
  ValueWhenMaximumOrMinimum,              !- Aggregation Type for Variable or Meter 4
  ExteriorEquipment:Electricity,          !- Variable or Meter Name 5
  ValueWhenMaximumOrMinimum,              !- Aggregation Type for Variable or Meter 5
  Fans:Electricity,                       !- Variable or Meter Name 6
  ValueWhenMaximumOrMinimum,              !- Aggregation Type for Variable or Meter 6
  Pumps:Electricity,                      !- Variable or Meter Name 7
  ValueWhenMaximumOrMinimum,              !- Aggregation Type for Variable or Meter 7
  Heating:Electricity,                    !- Variable or Meter Name 8
  ValueWhenMaximumOrMinimum,              !- Aggregation Type for Variable or Meter 8
  Cooling:Electricity,                    !- Variable or Meter Name 9
  ValueWhenMaximumOrMinimum,              !- Aggregation Type for Variable or Meter 9
  HeatRejection:Electricity,              !- Variable or Meter Name 10
  ValueWhenMaximumOrMinimum,              !- Aggregation Type for Variable or Meter 10
  Humidifier:Electricity,                 !- Variable or Meter Name 11
  ValueWhenMaximumOrMinimum,              !- Aggregation Type for Variable or Meter 11
  HeatRecovery:Electricity,               !- Variable or Meter Name 12
  ValueWhenMaximumOrMinimum,              !- Aggregation Type for Variable or Meter 12
  WaterSystems:Electricity,               !- Variable or Meter Name 13
  ValueWhenMaximumOrMinimum,              !- Aggregation Type for Variable or Meter 13
  Cogeneration:Electricity,               !- Variable or Meter Name 14
  ValueWhenMaximumOrMinimum,              !- Aggregation Type for Variable or Meter 14
  Refrigeration:Electricity,              !- Variable or Meter Name 15
  ValueWhenMaximumOrMinimum;              !- Aggregation Type for Variable or Meter 15

Output:Table:Monthly,
  Building Energy Performance - Natural Gas Peak Demand, !- Name
  2,                                      !- Digits After Decimal
  NaturalGas:Facility,                    !- Variable or Meter Name 1
  Maximum,                                !- Aggregation Type for Variable or Meter 1
  InteriorEquipment:NaturalGas,           !- Variable or Meter Name 2
  ValueWhenMaximumOrMinimum,              !- Aggregation Type for Variable or Meter 2
  ExteriorEquipment:NaturalGas,           !- Variable or Meter Name 3
  ValueWhenMaximumOrMinimum,              !- Aggregation Type for Variable or Meter 3
  Heating:NaturalGas,                     !- Variable or Meter Name 4
  ValueWhenMaximumOrMinimum,              !- Aggregation Type for Variable or Meter 4
  Cooling:NaturalGas,                     !- Variable or Meter Name 5
  ValueWhenMaximumOrMinimum,              !- Aggregation Type for Variable or Meter 5
  WaterSystems:NaturalGas,                !- Variable or Meter Name 6
  ValueWhenMaximumOrMinimum,              !- Aggregation Type for Variable or Meter 6
  Cogeneration:NaturalGas,                !- Variable or Meter Name 7
  ValueWhenMaximumOrMinimum;              !- Aggregation Type for Variable or Meter 7

Output:Table:Monthly,
  Building Energy Performance - District Heating Water Peak Demand, !- Name
  2,                                      !- Digits After Decimal
  DistrictHeatingWater:Facility,          !- Variable or Meter Name 1
  Maximum,                                !- Aggregation Type for Variable or Meter 1
  InteriorLights:DistrictHeatingWater,    !- Variable or Meter Name 2
  ValueWhenMaximumOrMinimum,              !- Aggregation Type for Variable or Meter 2
  ExteriorLights:DistrictHeatingWater,    !- Variable or Meter Name 3
  ValueWhenMaximumOrMinimum,              !- Aggregation Type for Variable or Meter 3
  InteriorEquipment:DistrictHeatingWater, !- Variable or Meter Name 4
  ValueWhenMaximumOrMinimum,              !- Aggregation Type for Variable or Meter 4
  ExteriorEquipment:DistrictHeatingWater, !- Variable or Meter Name 5
  ValueWhenMaximumOrMinimum,              !- Aggregation Type for Variable or Meter 5
  Fans:DistrictHeatingWater,              !- Variable or Meter Name 6
  ValueWhenMaximumOrMinimum,              !- Aggregation Type for Variable or Meter 6
  Pumps:DistrictHeatingWater,             !- Variable or Meter Name 7
  ValueWhenMaximumOrMinimum,              !- Aggregation Type for Variable or Meter 7
  Heating:DistrictHeatingWater,           !- Variable or Meter Name 8
  ValueWhenMaximumOrMinimum,              !- Aggregation Type for Variable or Meter 8
  Cooling:DistrictHeatingWater,           !- Variable or Meter Name 9
  ValueWhenMaximumOrMinimum,              !- Aggregation Type for Variable or Meter 9
  HeatRejection:DistrictHeatingWater,     !- Variable or Meter Name 10
  ValueWhenMaximumOrMinimum,              !- Aggregation Type for Variable or Meter 10
  Humidifier:DistrictHeatingWater,        !- Variable or Meter Name 11
  ValueWhenMaximumOrMinimum,              !- Aggregation Type for Variable or Meter 11
  HeatRecovery:DistrictHeatingWater,      !- Variable or Meter Name 12
  ValueWhenMaximumOrMinimum,              !- Aggregation Type for Variable or Meter 12
  WaterSystems:DistrictHeatingWater,      !- Variable or Meter Name 13
  ValueWhenMaximumOrMinimum,              !- Aggregation Type for Variable or Meter 13
  Cogeneration:DistrictHeatingWater,      !- Variable or Meter Name 14
  ValueWhenMaximumOrMinimum;              !- Aggregation Type for Variable or Meter 14

Output:Table:Monthly,
  Building Energy Performance - District Cooling Peak Demand, !- Name
  2,                                      !- Digits After Decimal
  DistrictCooling:Facility,               !- Variable or Meter Name 1
  Maximum,                                !- Aggregation Type for Variable or Meter 1
  InteriorLights:DistrictCooling,         !- Variable or Meter Name 2
  ValueWhenMaximumOrMinimum,              !- Aggregation Type for Variable or Meter 2
  ExteriorLights:DistrictCooling,         !- Variable or Meter Name 3
  ValueWhenMaximumOrMinimum,              !- Aggregation Type for Variable or Meter 3
  InteriorEquipment:DistrictCooling,      !- Variable or Meter Name 4
  ValueWhenMaximumOrMinimum,              !- Aggregation Type for Variable or Meter 4
  ExteriorEquipment:DistrictCooling,      !- Variable or Meter Name 5
  ValueWhenMaximumOrMinimum,              !- Aggregation Type for Variable or Meter 5
  Fans:DistrictCooling,                   !- Variable or Meter Name 6
  ValueWhenMaximumOrMinimum,              !- Aggregation Type for Variable or Meter 6
  Pumps:DistrictCooling,                  !- Variable or Meter Name 7
  ValueWhenMaximumOrMinimum,              !- Aggregation Type for Variable or Meter 7
  Heating:DistrictCooling,                !- Variable or Meter Name 8
  ValueWhenMaximumOrMinimum,              !- Aggregation Type for Variable or Meter 8
  Cooling:DistrictCooling,                !- Variable or Meter Name 9
  ValueWhenMaximumOrMinimum,              !- Aggregation Type for Variable or Meter 9
  HeatRejection:DistrictCooling,          !- Variable or Meter Name 10
  ValueWhenMaximumOrMinimum,              !- Aggregation Type for Variable or Meter 10
  Humidifier:DistrictCooling,             !- Variable or Meter Name 11
  ValueWhenMaximumOrMinimum,              !- Aggregation Type for Variable or Meter 11
  HeatRecovery:DistrictCooling,           !- Variable or Meter Name 12
  ValueWhenMaximumOrMinimum,              !- Aggregation Type for Variable or Meter 12
  WaterSystems:DistrictCooling,           !- Variable or Meter Name 13
  ValueWhenMaximumOrMinimum,              !- Aggregation Type for Variable or Meter 13
  Cogeneration:DistrictCooling,           !- Variable or Meter Name 14
  ValueWhenMaximumOrMinimum;              !- Aggregation Type for Variable or Meter 14

Output:Meter:MeterFileOnly,
  NaturalGas:Facility,                    !- Key Name
  Daily;                                  !- Reporting Frequency

Output:Meter:MeterFileOnly,
  Electricity:Facility,                   !- Key Name
  Timestep;                               !- Reporting Frequency

Output:Meter:MeterFileOnly,
  Electricity:Facility,                   !- Key Name
  Daily;                                  !- Reporting Frequency

Output:Meter,
  Electricity:Facility,                   !- Key Name
  Timestep;                               !- Reporting Frequency

Output:Meter,
  NaturalGas:Facility,                    !- Key Name
  Timestep;                               !- Reporting Frequency

Output:Meter,
  DistrictHeatingWater:Facility,          !- Key Name
  Timestep;                               !- Reporting Frequency

Output:Meter,
  DistrictCooling:Facility,               !- Key Name
  Timestep;                               !- Reporting Frequency

